Hf O 
 1.0000000000000000
     5.2333719435786001    0.0000003220556461    0.0000094539782774
     0.0000003182981002    5.0878289449089875   -0.0000016791731834
     0.0000097243449764   -0.0000017023601333    5.1139202641696651
 Hf  O  
   4   8
Direct
 -0.0027322200138096 -0.0026250620137013  0.0031142464250348
  0.0167671166627730  0.5094854807731326  0.5031142603866107
  0.5167673608320902 -0.0026252022737168  0.5031144368531359
  0.4972680006487560  0.5094852015111601  0.0031139661327098
  0.1912083676919092  0.3088425787940300  0.1835613363565039
  0.3228226918522692  0.3088414379935378  0.6835622685614288
  0.2259863114926677  0.8014506668212934  0.2906255762382798
  0.2880504285518439  0.8014512576086144  0.7906260496730055
  0.6912089928068593  0.1980202816760726  0.1835633356891135
  0.8228222728406143  0.1980211792826357  0.6835641640432814
  0.7259859202092473  0.7054109264386043  0.2906273883949918
  0.7880508570481921  0.7054101903684327  0.7906280282017145
