Hf O 
 1.0000000000000000
     5.2398492442699514    0.0000001905870920    0.0000091122832495
     0.0000001940269757    5.0726880539767256   -0.0000010612871898
     0.0000094326384924   -0.0000010803522448    5.1022915964900264
 Hf  O  
   4   8
Direct
 -0.0038904107072319 -0.0040294673811705  0.0045558442010820
  0.0332324775186156  0.5183739809441835  0.5045558725341317
  0.5332326604912637 -0.0040297469178894  0.5045561617373308
  0.4961097412020728  0.5183735516514218  0.0045553936909233
  0.1821567558593887  0.3164175335204539  0.1709250421800141
  0.3471810894000903  0.3164160871924306  0.6709260640364694
  0.2512535799179459  0.8011362570846661  0.2770662659837752
  0.2780898298360004  0.8011367487909701  0.7770664452832132
  0.6821573320543229  0.1979284995200271  0.1709270363003114
  0.8471806824851633  0.1979297083932332  0.6709279303507725
  0.7512531851326331  0.7132090940055852  0.2770680867118396
  0.7780903554309263  0.7132084685656092  0.7770683812729755
