Hf O 
 1.0000000000000000
     5.2506178214157275    0.0000003974963124    0.0000081695012367
     0.0000003943586720    5.0570642831435588   -0.0000033784952414
     0.0000085753140351   -0.0000034109403773    5.0888865525548033
 Hf  O  
   4   8
Direct
  0.0029310728385635  0.0033587482927743 -0.0036041572520646
 -0.0492784037146660  0.4739848519522674  0.4963956944647266
  0.4507211025855465  0.0033589599439721  0.4963955351308973
  0.5029308297491666  0.4739853873465500 -0.0036036934653538
  0.2306745073367111  0.2786008088031998  0.2361805109926257
  0.2229766859843950  0.2786001225099310  0.7361806149087888
  0.1279647387048271  0.8021525229605803  0.3423721610599195
  0.3256921946276483  0.8021541164699212  0.8423730607945038
  0.7306748821266833  0.1987393281552457  0.2361826599731928
  0.7229763469919155  0.1987399734493999  0.7361826326864152
  0.6279642674705850  0.6751861663806070  0.3423742572350604
  0.8256928979950876  0.6751843537939629  0.8423753083043328
