Hf O 
 1.0000000000000000
     5.2506178214157364    0.0000003974963047    0.0000081695012367
     0.0000003943586646    5.0570642831435766   -0.0000033784952360
     0.0000085753140351   -0.0000034109403719    5.0888865525548006
 Hf  O  
   4   8
Direct
 -0.0029310728385662 -0.0033587482927744  0.0036041572520648
  0.0492784037146598  0.5260151480477326  0.5036043055352722
  0.5492788974144481 -0.0033589599439722  0.5036044648691013
  0.4970691702509096  0.5260146126534699  0.0036036934652960
  0.1743071020049169  0.3248156462060368  0.1576246916956708
  0.3720357325294063  0.3248138336193928  0.6576257427649431
  0.2770236530080757  0.8012600265506030  0.2638173673135885
  0.2693251178733203  0.8012606718447642  0.7638173400268102
  0.6743078053723558  0.1978458835300094  0.1576269392055883
  0.8720352612951646  0.1978474770394223  0.6576278389400845
  0.7770233140156715  0.7213998774900685  0.2638193850912148
  0.7693254926631957  0.7213991911967989  0.7638194890073783
