Hf O 
 1.0000000000000000
     5.2310129829609080    0.0000002396664330    0.0000094435989772
     0.0000002390278181    5.0943881929926809   -0.0000012468161466
     0.0000096992462933   -0.0000012674814361    5.1187096068920264
 Hf  O  
   4   8
Direct
  0.0000000000000000  0.0000000000000000 -0.0000000000000000
 -0.0000000000000001  0.5000000000000013  0.4999999999999993
  0.4999999999999999  0.0000000000000000  0.4999999999999991
  0.5000000000000001  0.5000000000000004  0.0000000000000000
  0.2013882061485730  0.3017923162785680  0.1961876639170024
  0.2986088734461988  0.3017914413507115  0.6961885012226657
  0.2013915551611726  0.8017911351537744  0.3038096865716303
  0.2986112488021099  0.8017918308959561  0.8038103919943673
  0.7013887511978911  0.1982081691040451  0.1961896080056308
  0.7986084448388276  0.1982088648462283  0.6961903134283683
  0.7013911265538019  0.6982085586492911  0.3038114987773328
  0.7986117938514283  0.6982076837214339  0.8038123360829963
