Hf O 
 1.0000000000000000
     5.2398492442699549    0.0000001905870841    0.0000091122832503
     0.0000001940269683    5.0726880539767212   -0.0000010612872000
     0.0000094326384931   -0.0000010803522550    5.1022915964900299
 Hf  O  
   4   8
Direct
  0.0038904107072155  0.0040294673811707 -0.0045558442010821
 -0.0332324775185977  0.4816260190558176  0.4954441274658667
  0.4667673395087358  0.0040297469178895  0.4954438382626674
  0.5038902587979281  0.4816264483485798 -0.0045553936909233
  0.2219096445690753  0.2867915314343920  0.2229316187270238
  0.2487468148673654  0.2867909059944167  0.7229319132881598
  0.1528193175148353  0.8020702916067690  0.3290720696492272
  0.3178426679456783  0.8020715004798864  0.8290729636996873
  0.7219101701640012  0.1988632512091487  0.2229335547167288
  0.7487464200820491  0.1988637429153426  0.7229337340162246
  0.6528189105999085  0.6835839128075712  0.3290739359635305
  0.8178432441406687  0.6835824664795480  0.8290749578199851
