Hf O 
 1.0000000000000000
     5.2333719435786037    0.0000003220556375    0.0000094539782825
     0.0000003182980919    5.0878289449089831   -0.0000016791731972
     0.0000097243449814   -0.0000017023601473    5.1139202641696633
 Hf  O  
   4   8
Direct
  0.0027322200138093  0.0026250620137010 -0.0031142464250345
 -0.0167671166627660  0.4905145192268742  0.4968857396133883
  0.4832326391679177  0.0026252022737164  0.4968855631468627
  0.5027319993512441  0.4905147984888456 -0.0031139661327093
  0.2119491429518046  0.2945898096315727  0.2093719717982781
  0.2740140797907638  0.2945890735614016  0.7093726116050008
  0.1771777271593959  0.8019788207173666  0.3164358359567117
  0.3087910071931370  0.8019797183239306  0.8164366643108791
  0.7119495714481534  0.1985487423913883  0.2093739503269867
  0.7740136885072589  0.1985493331788100  0.7093744237617134
  0.6771773081477420  0.6911585620064686  0.3164377314385640
  0.8087916323080877  0.6911574212059759  0.8164386636434888
