Ga N                                    
   1.00000000000000     
     2.0291112342277855   -2.0291112342277855    0.0000000000000000
     2.0291112342277855    2.0291112342277855    0.0000000000000000
     0.0000000000000000    0.0000000000000000    4.0580649313120940
   Ga   N 
     2     2
Direct
  0.6666666666666643  0.3333333333333357  0.4993523764645005
  0.1666666666666643  0.8333333333333357  0.9993523764645005
  0.6666666666666643  0.3333333333333357  0.9993523764645005
  0.1666666666666643  0.8333333333333357  0.4993523764645005
 
  0.00000000E+00  0.00000000E+00  0.00000000E+00
  0.00000000E+00  0.00000000E+00  0.00000000E+00
  0.00000000E+00  0.00000000E+00  0.00000000E+00
  0.00000000E+00  0.00000000E+00  0.00000000E+00
