Hf O 
 1.0000000000000000
     5.2914507350807227   -0.0000000000000000   -0.0000000000000051
     0.0000000000000000    5.1266087975855772    0.0000000000000000
    -0.0000524317933313   -0.7625601466577224    5.0636755947253276
 Hf  O  
   4   8
Direct
 -0.0014117129625250  0.0014636725113325  0.9971349328431515
  0.4985863989272355  0.0832193937577756  0.4475673330525662
  0.4182326686843713  0.5014653433875870  0.9971372197552124
  0.9182354534071369  0.5832187607351434  0.4475687378206643
  0.1985484899603341  0.3082477742498892  0.2731132297330074
  0.7182730699732169  0.2764323661860485  0.1715981371887010
  0.3123104042853113  0.1175755963126733  0.8021425815271818
  0.6045162626792969  0.4671072843626684  0.6425673566938470
  0.2182743246065332  0.8082472077205428  0.2731149433025120
  0.6985505125172096  0.7764330343595353  0.1715960505420324
  0.1045140647280174  0.6175760185581652  0.8021449156948871
  0.8123090631945145  0.9671065478596833  0.6425655618473518
