Hf O 
 1.0000000000000000
     5.2390601337432896   -0.0000000000000000   -0.0000000000000050
     0.0000000000000000    5.0758502946391850    0.0000000000000000
     0.0000036487728311   -0.0000003347003477    5.0721417304059004
 Hf  O  
   4   8
Direct
  0.0179505168164723  0.0449881462301211 -0.0081206335160098
  0.5179517283535917 -0.0159137443527288  0.5223369196043968
  0.5179506180149362  0.4840861577949892 -0.0081200453324977
  0.0179516760950149  0.5449883414746788  0.5223369876692310
  0.1685627525763296  0.3760907369497533  0.1911845930487492
  0.6685624589919532  0.1529783011540503  0.1911836924712151
  0.2664710966637318  0.2473445083219132  0.7203308346441667
  0.7664712810034721  0.2817250851524251  0.7203308497869895
  0.1685640693130394  0.8760897128330223  0.3230263829974054
  0.6685635576202189  0.6529793565124390  0.3230276102639966
  0.2664732512510998  0.7473449968537622  0.7938800640244613
  0.7664732766591364  0.7817246068889689  0.7938802218252548
