Hf O 
 1.0000000000000000
     5.2390601337432896    0.0000000000000000   -0.0000000000000050
     0.0000000000000000    5.0758502946391850    0.0000000000000000
    -0.0000236387337592    0.0000019239710959    5.1361815159411073
 Hf  O  
   4   8
Direct
  0.0090776625182073  0.0338635428574021 -0.0041159888001577
  0.5090772666353572 -0.0308807819786276  0.5055655111974465
  0.5090762849763434  0.4691182685947602 -0.0041138549444703
  0.0090789909765835  0.5338622940366116  0.5055675328174591
  0.1977594740205235  0.3401183748114450  0.2171911484996420
  0.6977581413920436  0.1628583727131348  0.2171876193237698
  0.2883372943193341  0.1901015909734458  0.7537679828366466
  0.7883380506582511  0.3128845204536261  0.7537710858234347
  0.1977613141806264  0.8401179292165093  0.2842616016437353
  0.6977597492701931  0.6628589061847339  0.2842651472110513
  0.2883451290407750  0.6901013202110884  0.7476828770349907
  0.7883459284946698  0.8128845588407061  0.7476798977845763
