Hf O 
 1.0000000000000000
     5.2390601337432896   -0.0000000000000000   -0.0000000000000050
     0.0000000000000000    5.0758502946391850    0.0000000000000000
    -0.0000017965391748    0.0000022999220920    5.1581126754404334
 Hf  O  
   4   8
Direct
  0.0000411883172650  0.0357369147168877 -0.0000234361865554
  0.5000400916181731 -0.0357900954408168  0.4999876764442588
  0.5000399843952649  0.4642098927823334 -0.0000214163829970
  0.0000414298893172  0.5357368989096043  0.4999893721037501
  0.2008088798905503  0.3296164326270744  0.2288830101772071
  0.7008080329973685  0.1703264180785330  0.2288803132248412
  0.2992373207068080  0.1703621575666721  0.7710479607370598
  0.7992381904515785  0.3295881474764690  0.7710508141109454
  0.2008089745160883  0.8296164921036119  0.2710829873524725
  0.7008080176557027  0.6703264820968450  0.2710856682749235
  0.2992374347220296  0.6703622038693797  0.7289178517309951
  0.7992380834487709  0.8295878495386372  0.7289154222131593
