Hf O 
 1.0000000000000000
     5.2390601337432896    0.0000000000000000   -0.0000000000000050
     0.0000000000000000    5.0758502946391850    0.0000000000000000
     0.0000260711490568    0.0000018325662797    5.1020993202236742
 Hf  O  
   4   8
Direct
  0.0192200164996102  0.0326530260136866 -0.0085269268115305
  0.5192197093804140 -0.0245413016308632  0.5124931425683218
  0.5192192941050177  0.4754590871866311 -0.0085256124483246
  0.0192209167192475  0.5326533916048668  0.5124939653881116
  0.1913486619402826  0.3526065851564275  0.2031284986197673
  0.6913472921684234  0.1555033839357697  0.2031260476468293
  0.2763055409633386  0.2153143048438829  0.7329432208674341
  0.7763059603855801  0.2928011580914319  0.7329441518010423
  0.1913536115187207  0.8526052981103239  0.3008331292846969
  0.6913520971679822  0.6555047997155342  0.3008357776337665
  0.2763147637895348  0.7153136825359943  0.7710176465368654
  0.7763151416945099  0.7928016021380321  0.7710168297424234
