Hf O 
 1.0000000000000000
     5.2390601337432896    0.0000000000000000   -0.0000000000000050
     0.0000000000000000    5.0758502946391850    0.0000000000000000
     0.0000038271226355   -0.0000002031108772    5.0723394289675623
 Hf  O  
   4   8
Direct
 -0.0180252767606908  0.0159987538572711  0.0081475609703986
  0.4819735710416753 -0.0448244027106986  0.4777566478674155
  0.4819748403794438  0.4551758798931685  0.0081481610098944
 -0.0180264810649797  0.5159987585644021  0.4777566816515297
  0.2334778526369223  0.2529253761045508  0.2796345153210442
  0.7334775851342785  0.2182543541547954  0.2796345642593820
  0.3311602632671096  0.1241635475714354  0.8087396053544692
  0.8311608552554249  0.3470167377251431  0.8087408364376522
  0.2334756262305615  0.7529248245016200  0.2062763161196291
  0.7334755831400900  0.7182547798584453  0.2062761032120167
  0.3311583659595011  0.6241647786773802  0.6771711821184319
  0.8311589411012572  0.8470156485104813  0.6771699811978398
