Hf O 
 1.0000000000000000
     5.2390601337432896   -0.0000000000000000   -0.0000000000000050
     0.0000000000000000    5.0758502946391850    0.0000000000000000
    -0.0000266226412658    0.0000016469853658    5.1364382301283547
 Hf  O  
   4   8
Direct
 -0.0089000411054719  0.0308788496590314  0.0040279683208838
  0.4910971811919465 -0.0339258783181361  0.4944739059651067
  0.4910986255178599  0.4660728630402544  0.0040301142487732
 -0.0089011093601951  0.5308776875294551  0.4944759077265456
  0.2116089751015598  0.3100861957983900  0.2459856154614700
  0.7116082610372589  0.1868613284595693  0.2459826603775964
  0.3022267883061667  0.1599856236279862  0.7826106352552913
  0.8022281804135447  0.3369712910607591  0.7826143581146178
  0.2116006053077938  0.8100864188347502  0.2525191150590781
  0.7115998430613858  0.6868612202426635  0.2525222615912559
  0.3022247142576426  0.6599861911586320  0.7158923065457222
  0.8022262103171816  0.8369705528585059  0.7158887884218977
