Hf O 
 1.0000000000000000
     5.2390601337432896   -0.0000000000000000   -0.0000000000000050
     0.0000000000000000    5.0758502946391850    0.0000000000000000
     0.0000273640289111    0.0000016179461114    5.1024800882615446
 Hf  O  
   4   8
Direct
 -0.0190612746953064  0.0245497564672415  0.0084527469822229
  0.4809372173926278 -0.0326627914858915  0.4875720859409804
  0.4809379271988098  0.4673376022068584  0.0084540648702105
 -0.0190618055223111  0.5245500745228534  0.4875727687069035
  0.2236446192951956  0.2849630294465068  0.2667934704565440
  0.7236443196987529  0.2069210861177524  0.2667925306717956
  0.3085446196635135  0.1475588598566220  0.7966456396167328
  0.8085460379022735  0.3443307429015607  0.7966481708050198
  0.2236351513101205  0.7849638458532144  0.2292400192958879
  0.7236347804084851  0.7069205410248850  0.2292407888452054
  0.3085393356464782  0.6475603368409790  0.6993868319140097
  0.8085408906470758  0.8443290926214696  0.6993842420953946
