Hf O
 1.0000000000000000
     5.2914507350807227    0.0000000000000000   -0.0000000000000051
     0.0000000000000000    5.1266087975855772    0.0000000000000000
     0.0000000000000004   -0.0000000000000006    5.0532031326209346
 Hf  O
   4   8
Direct
  0.0000000000000000  0.0000000000000000  0.0000000000000000
  0.5000000000000014  0.0000000000000000  0.5000000000000009
  0.5000000000000038  0.5000000000000011  0.0000000000000000
  0.0000000000000000  0.5000000000000011  0.5000000000000009
  0.1902257571902328  0.2500000000000006  0.2500000000000004
  0.6902257571902377  0.2500000000000006  0.2500000000000006
  0.3097742428097694  0.2500000000000007  0.7499999999999998
  0.8097742428097719  0.2500000000000007  0.7499999999999997
  0.3097742428097671  0.7499999999999946  0.2499999999999998
  0.8097742428097785  0.7499999999999946  0.2499999999999998
  0.1902257571902328  0.7499999999999946  0.7499999999999997
  0.6902257571902360  0.7499999999999946  0.7499999999999997
