Hf O
 1.0000000000000000
     5.2914507350807227    0.0000000000000000   -0.0000000000000051
     0.0000000000000000    5.1266087975855772    0.0000000000000000
    -0.0000121936466141    0.0000011484016409    5.0295646566524139
 Hf  O
   4   8
Direct
  0.0003766887447652  0.0000325110745348  0.0004561179233694
  0.5003756146359967 -0.0650437287674726  0.4677557069153185
  0.5003759763170565  0.4349563580067177  0.0004574569228813
  0.0003765894869403  0.5000321914994915  0.4677573231452935
  0.2497608095120190  0.2334637604965316  0.2730383061588049
  0.7497602161633334  0.2015242208754080  0.2730396144976738
  0.3550021226787186  0.1034490152084143  0.8022284130106316
  0.8550018017784614  0.3315334169233099  0.8022256262453351
  0.2497613897547481  0.7334643740198680  0.1951768049448722
  0.7497610175199332  0.7015247424433126  0.1951753712420985
  0.3550030641954265  0.6034486897943550  0.6659867061179672
  0.8550021978048773  0.8315331748707084  0.6659891574158038
