 vasp.6.3.2 27Jun22 (build Sep 18 2026 15:57:57) complex                        
  
 executed on             LinuxIFC date 2026.10.01  17:49:34
 running on   32 total cores
 distrk:  each k-point on   32 cores,    1 groups
 distr:  one band on NCORE=   1 cores,   32 groups


--------------------------------------------------------------------------------------------------------


 INCAR:
   ENCUT = 600.000000
   SIGMA = 0.050000
   EDIFF = 1.00e-07
   SYMPREC = 1.00e-04
   GGA = PE
   PREC = Accurate
   IBRION = -1
   ISIF = 2
   ISMEAR = 0
   ISYM = -1
   NSW = 0
   LCHARG = .FALSE.
   LWAVE = .FALSE.

 POTCAR:    PAW_PBE Ga_d 06Jul2010                
 POTCAR:    PAW_PBE N 08Apr2002                   
 -----------------------------------------------------------------------------
|                                                                             |
|           W    W    AA    RRRRR   N    N  II  N    N   GGGG   !!!           |
|           W    W   A  A   R    R  NN   N  II  NN   N  G    G  !!!           |
|           W    W  A    A  R    R  N N  N  II  N N  N  G       !!!           |
|           W WW W  AAAAAA  RRRRR   N  N N  II  N  N N  G  GGG   !            |
|           WW  WW  A    A  R   R   N   NN  II  N   NN  G    G                |
|           W    W  A    A  R    R  N    N  II  N    N   GGGG   !!!           |
|                                                                             |
|     For optimal performance we recommend to set                             |
|       NCORE = 2 up to number-of-cores-per-socket                            |
|     NCORE specifies how many cores store one orbital (NPAR=cpu/NCORE).      |
|     This setting can greatly improve the performance of VASP for DFT.       |
|     The default, NCORE=1 might be grossly inefficient on modern             |
|     multi-core architectures or massively parallel machines. Do your        |
|     own testing! More info at https://www.vasp.at/wiki/index.php/NCORE      |
|     Unfortunately you need to use the default for GW and RPA                |
|     calculations (for HF NCORE is supported but not extensively tested      |
|     yet).                                                                   |
|                                                                             |
 -----------------------------------------------------------------------------

 POTCAR:    PAW_PBE Ga_d 06Jul2010                
   VRHFIN =Ga: s2p1                                                                                 
   LEXCH  = PE                                                                                      
   EATOM  =  2148.8298 eV,  157.9345 Ry                                                             
                                                                                                    
   TITEL  = PAW_PBE Ga_d 06Jul2010                                                                  
   LULTRA =        F    use ultrasoft PP ?                                                          
   IUNSCR =        1    unscreen: 0-lin 1-nonlin 2-no                                               
   RPACOR =    1.700    partial core radius                                                         
   POMASS =   69.723; ZVAL   =   13.000    mass and valenz                                          
   RCORE  =    2.300    outmost cutoff radius                                                       
   RWIGS  =    2.300; RWIGS  =    1.217    wigner-seitz radius (au A)                               
   ENMAX  =  282.691; ENMIN  =  212.018 eV                                                          
   ICORE  =        3    local potential                                                             
   LCOR   =        T    correct aug charges                                                         
   LPAW   =        T    paw PP                                                                      
   EAUG   =  490.690                                                                                
   DEXC   =    0.000                                                                                
   RMAX   =    2.341    core radius for proj-oper                                                   
   RAUG   =    1.300    factor for augmentation sphere                                              
   RDEP   =    2.413    radius for radial grids                                                     
   RDEPT  =    1.856    core radius for aug-charge                                                  
                                                                                                    
   Atomic configuration                                                                             
    9 entries                                                                                       
     n  l   j            E        occ.                                                              
     1  0  0.50    -10228.7831   2.0000                                                             
     2  0  0.50     -1262.1604   2.0000                                                             
     2  1  1.50     -1098.6333   6.0000                                                             
     3  0  0.50      -148.1110   2.0000                                                             
     3  1  1.50       -98.8436   6.0000                                                             
     3  2  2.50       -19.1549  10.0000                                                             
     4  0  0.50        -8.9483   2.0000                                                             
     4  1  0.50        -2.5791   1.0000                                                             
     4  3  2.50        -2.7416   0.0000                                                             
   Description                                                                                      
     l       E           TYP  RCUT    TYP  RCUT                                                     
     2    -19.1549037     23  2.300                                                                 
     2     -5.4423304     23  2.300                                                                 
     0     -8.9483111     23  2.300                                                                 
     0     68.0291300     23  2.300                                                                 
     1     -2.5790802     23  2.100                                                                 
     1     81.6349560     23  2.300                                                                 
     3      6.8029130     23  2.300                                                                 
  local pseudopotential read in
  partial core-charges read in
  partial kinetic energy density read in
  atomic valenz-charges read in
  non local Contribution for L=           2  read in
    real space projection operators read in
  non local Contribution for L=           2  read in
    real space projection operators read in
  non local Contribution for L=           0  read in
    real space projection operators read in
  non local Contribution for L=           0  read in
    real space projection operators read in
  non local Contribution for L=           1  read in
    real space projection operators read in
  non local Contribution for L=           1  read in
    real space projection operators read in
    PAW grid and wavefunctions read in
 
   number of l-projection  operators is LMAX  =           6
   number of lm-projection operators is LMMAX =          18
 
 POTCAR:    PAW_PBE N 08Apr2002                   
   VRHFIN =N: s2p3                                                                                  
   LEXCH  = PE                                                                                      
   EATOM  =   264.5486 eV,   19.4438 Ry                                                             
                                                                                                    
   TITEL  = PAW_PBE N 08Apr2002                                                                     
   LULTRA =        F    use ultrasoft PP ?                                                          
   IUNSCR =        1    unscreen: 0-lin 1-nonlin 2-no                                               
   RPACOR =    1.200    partial core radius                                                         
   POMASS =   14.001; ZVAL   =    5.000    mass and valenz                                          
   RCORE  =    1.500    outmost cutoff radius                                                       
   RWIGS  =    1.400; RWIGS  =    0.741    wigner-seitz radius (au A)                               
   ENMAX  =  400.000; ENMIN  =  300.000 eV                                                          
   ICORE  =        2    local potential                                                             
   LCOR   =        T    correct aug charges                                                         
   LPAW   =        T    paw PP                                                                      
   EAUG   =  627.112                                                                                
   DEXC   =    0.000                                                                                
   RMAX   =    1.529    core radius for proj-oper                                                   
   RAUG   =    1.300    factor for augmentation sphere                                              
   RDEP   =    1.514    radius for radial grids                                                     
   RDEPT  =    1.338    core radius for aug-charge                                                  
                                                                                                    
   Atomic configuration                                                                             
    4 entries                                                                                       
     n  l   j            E        occ.                                                              
     1  0  0.50      -384.7179   2.0000                                                             
     2  0  0.50       -18.5828   2.0000                                                             
     2  1  0.50        -7.0898   3.0000                                                             
     3  2  1.50        -6.8029   0.0000                                                             
   Description                                                                                      
     l       E           TYP  RCUT    TYP  RCUT                                                     
     0    -18.5828119     23  1.200                                                                 
     0    -13.5018863     23  1.200                                                                 
     1     -7.0897853     23  1.500                                                                 
     1      9.5240782     23  1.500                                                                 
     2     -6.8029130      7  1.500                                                                 
  local pseudopotential read in
  partial core-charges read in
  partial kinetic energy density read in
  atomic valenz-charges read in
  non local Contribution for L=           0  read in
    real space projection operators read in
  non local Contribution for L=           0  read in
    real space projection operators read in
  non local Contribution for L=           1  read in
    real space projection operators read in
  non local Contribution for L=           1  read in
    real space projection operators read in
    PAW grid and wavefunctions read in
 
   number of l-projection  operators is LMAX  =           4
   number of lm-projection operators is LMMAX =           8
 
  PAW_PBE Ga_d 06Jul2010                :
 energy of atom  1       EATOM=-2148.8298
 kinetic energy error for atom=    0.0018 (will be added to EATOM!!)
  PAW_PBE N 08Apr2002                   :
 energy of atom  2       EATOM= -264.5486
 kinetic energy error for atom=    0.0103 (will be added to EATOM!!)
 
 
 POSCAR: Ga N
  positions in direct lattice
  No initial velocities read in
 exchange correlation table for  LEXCH =        8
   RHO(1)=    0.500       N(1)  =     2000
   RHO(2)=  100.500       N(2)  =     4000
 


--------------------------------------------------------------------------------------------------------


 ion  position               nearest neighbor table
   1  0.655  0.345  0.522-   3 1.88   4 1.88   4 1.88   4 1.94   2 2.92   2 2.92
   2  0.253  0.747  0.022-   4 1.88   3 1.88   3 1.88   3 1.94   1 2.92   1 2.92
   3  0.686  0.314  0.921-   1 1.88   2 1.88   2 1.88   2 1.94
   4  0.222  0.778  0.421-   2 1.88   1 1.88   1 1.88   1 1.94
 

IMPORTANT INFORMATION: All symmetrisations will be switched off!
NOSYMM: (Re-)initialisation of all symmetry stuff for point group C_1.


----------------------------------------------------------------------------------------

                                     Primitive cell                                     

  volume of cell :      36.6081

  direct lattice vectors                    reciprocal lattice vectors
     1.797939366 -2.174469529 -0.000011658     0.278096141 -0.229941139  0.000001079
     1.797939367  2.174469530  0.000011669     0.278096141  0.229941139 -0.000001081
     0.000000012  0.000021988  4.681859094    -0.000000001 -0.000001146  0.213590367

  length of vectors
     2.821507345  2.821507346  4.681859094     0.360846770  0.360846769  0.213590367

  position of ions in fractional coordinates (direct lattice)
     0.654511761  0.345488587  0.521891659
     0.253475793  0.746524559  0.021893695
     0.686252555  0.313747791  0.921404879
     0.221725240  0.778275110  0.421404467

  ion indices of the primitive-cell ions
   primitive index   ion index
                 1           1
                 2           2
                 3           3
                 4           4

----------------------------------------------------------------------------------------

 
 
 KPOINTS: KPOINTS created by Atomic Simulation Env

Automatic generation of k-mesh.
 Grid dimensions read from file:
 generate k-points for:    8    8    6

 Generating k-lattice:

  Cartesian coordinates                     Fractional coordinates (reciprocal lattice)
     0.034762018 -0.028742642  0.000000135     0.125000000  0.000000000  0.000000000
     0.034762018  0.028742642 -0.000000135     0.000000000  0.125000000 -0.000000000
    -0.000000000 -0.000000191  0.035598394     0.000000000  0.000000000  0.166666667

  Length of vectors
     0.045105846  0.045105846  0.035598394

  Shift w.r.t. Gamma in fractional coordinates (k-lattice)
     0.000000000  0.000000000  0.000000000

 
 Subroutine IBZKPT returns following result:
 ===========================================
 
 Found    384 irreducible k-points:
 
 Following reciprocal coordinates:
            Coordinates               Weight
  0.000000  0.000000  0.000000      1.000000
  0.125000 -0.000000  0.000000      1.000000
  0.250000 -0.000000  0.000000      1.000000
  0.375000 -0.000000 -0.000000      1.000000
  0.500000 -0.000000 -0.000000      1.000000
 -0.375000  0.000000  0.000000      1.000000
 -0.250000  0.000000 -0.000000      1.000000
 -0.125000  0.000000  0.000000      1.000000
  0.000000  0.125000  0.000000      1.000000
  0.125000  0.125000  0.000000      1.000000
  0.250000  0.125000 -0.000000      1.000000
  0.375000  0.125000 -0.000000      1.000000
  0.500000  0.125000 -0.000000      1.000000
 -0.375000  0.125000 -0.000000      1.000000
 -0.250000  0.125000  0.000000      1.000000
 -0.125000  0.125000  0.000000      1.000000
  0.000000  0.250000  0.000000      1.000000
  0.125000  0.250000 -0.000000      1.000000
  0.250000  0.250000 -0.000000      1.000000
  0.375000  0.250000 -0.000000      1.000000
  0.500000  0.250000  0.000000      1.000000
 -0.375000  0.250000  0.000000      1.000000
 -0.250000  0.250000  0.000000      1.000000
 -0.125000  0.250000 -0.000000      1.000000
 -0.000000  0.375000 -0.000000      1.000000
  0.125000  0.375000 -0.000000      1.000000
  0.250000  0.375000 -0.000000      1.000000
  0.375000  0.375000  0.000000      1.000000
  0.500000  0.375000  0.000000      1.000000
 -0.375000  0.375000  0.000000      1.000000
 -0.250000  0.375000 -0.000000      1.000000
 -0.125000  0.375000  0.000000      1.000000
  0.000000  0.500000 -0.000000      1.000000
  0.125000  0.500000 -0.000000      1.000000
  0.250000  0.500000  0.000000      1.000000
  0.375000  0.500000  0.000000      1.000000
  0.500000  0.500000  0.000000      1.000000
 -0.375000  0.500000 -0.000000      1.000000
 -0.250000  0.500000  0.000000      1.000000
 -0.125000  0.500000 -0.000000      1.000000
  0.000000 -0.375000  0.000000      1.000000
  0.125000 -0.375000 -0.000000      1.000000
  0.250000 -0.375000  0.000000      1.000000
  0.375000 -0.375000  0.000000      1.000000
  0.500000 -0.375000 -0.000000      1.000000
 -0.375000 -0.375000 -0.000000      1.000000
 -0.250000 -0.375000  0.000000      1.000000
 -0.125000 -0.375000  0.000000      1.000000
 -0.000000 -0.250000 -0.000000      1.000000
  0.125000 -0.250000  0.000000      1.000000
  0.250000 -0.250000  0.000000      1.000000
  0.375000 -0.250000 -0.000000      1.000000
  0.500000 -0.250000  0.000000      1.000000
 -0.375000 -0.250000  0.000000      1.000000
 -0.250000 -0.250000  0.000000      1.000000
 -0.125000 -0.250000  0.000000      1.000000
 -0.000000 -0.125000  0.000000      1.000000
  0.125000 -0.125000  0.000000      1.000000
  0.250000 -0.125000 -0.000000      1.000000
  0.375000 -0.125000  0.000000      1.000000
  0.500000 -0.125000 -0.000000      1.000000
 -0.375000 -0.125000  0.000000      1.000000
 -0.250000 -0.125000  0.000000      1.000000
 -0.125000 -0.125000  0.000000      1.000000
 -0.000000  0.000000  0.166667      1.000000
  0.125000  0.000000  0.166667      1.000000
  0.250000  0.000000  0.166667      1.000000
  0.375000  0.000000  0.166667      1.000000
  0.500000  0.000000  0.166667      1.000000
 -0.375000 -0.000000  0.166667      1.000000
 -0.250000  0.000000  0.166667      1.000000
 -0.125000 -0.000000  0.166667      1.000000
  0.000000  0.125000  0.166667      1.000000
  0.125000  0.125000  0.166667      1.000000
  0.250000  0.125000  0.166667      1.000000
  0.375000  0.125000  0.166667      1.000000
  0.500000  0.125000  0.166667      1.000000
 -0.375000  0.125000  0.166667      1.000000
 -0.250000  0.125000  0.166667      1.000000
 -0.125000  0.125000  0.166667      1.000000
  0.000000  0.250000  0.166667      1.000000
  0.125000  0.250000  0.166667      1.000000
  0.250000  0.250000  0.166667      1.000000
  0.375000  0.250000  0.166667      1.000000
  0.500000  0.250000  0.166667      1.000000
 -0.375000  0.250000  0.166667      1.000000
 -0.250000  0.250000  0.166667      1.000000
 -0.125000  0.250000  0.166667      1.000000
  0.000000  0.375000  0.166667      1.000000
  0.125000  0.375000  0.166667      1.000000
  0.250000  0.375000  0.166667      1.000000
  0.375000  0.375000  0.166667      1.000000
  0.500000  0.375000  0.166667      1.000000
 -0.375000  0.375000  0.166667      1.000000
 -0.250000  0.375000  0.166667      1.000000
 -0.125000  0.375000  0.166667      1.000000
  0.000000  0.500000  0.166667      1.000000
  0.125000  0.500000  0.166667      1.000000
  0.250000  0.500000  0.166667      1.000000
  0.375000  0.500000  0.166667      1.000000
  0.500000  0.500000  0.166667      1.000000
 -0.375000  0.500000  0.166667      1.000000
 -0.250000  0.500000  0.166667      1.000000
 -0.125000  0.500000  0.166667      1.000000
 -0.000000 -0.375000  0.166667      1.000000
  0.125000 -0.375000  0.166667      1.000000
  0.250000 -0.375000  0.166667      1.000000
  0.375000 -0.375000  0.166667      1.000000
  0.500000 -0.375000  0.166667      1.000000
 -0.375000 -0.375000  0.166667      1.000000
 -0.250000 -0.375000  0.166667      1.000000
 -0.125000 -0.375000  0.166667      1.000000
 -0.000000 -0.250000  0.166667      1.000000
  0.125000 -0.250000  0.166667      1.000000
  0.250000 -0.250000  0.166667      1.000000
  0.375000 -0.250000  0.166667      1.000000
  0.500000 -0.250000  0.166667      1.000000
 -0.375000 -0.250000  0.166667      1.000000
 -0.250000 -0.250000  0.166667      1.000000
 -0.125000 -0.250000  0.166667      1.000000
 -0.000000 -0.125000  0.166667      1.000000
  0.125000 -0.125000  0.166667      1.000000
  0.250000 -0.125000  0.166667      1.000000
  0.375000 -0.125000  0.166667      1.000000
  0.500000 -0.125000  0.166667      1.000000
 -0.375000 -0.125000  0.166667      1.000000
 -0.250000 -0.125000  0.166667      1.000000
 -0.125000 -0.125000  0.166667      1.000000
 -0.000000  0.000000  0.333333      1.000000
  0.125000 -0.000000  0.333333      1.000000
  0.250000  0.000000  0.333333      1.000000
  0.375000 -0.000000  0.333333      1.000000
  0.500000  0.000000  0.333333      1.000000
 -0.375000  0.000000  0.333333      1.000000
 -0.250000 -0.000000  0.333333      1.000000
 -0.125000  0.000000  0.333333      1.000000
  0.000000  0.125000  0.333333      1.000000
  0.125000  0.125000  0.333333      1.000000
  0.250000  0.125000  0.333333      1.000000
  0.375000  0.125000  0.333333      1.000000
  0.500000  0.125000  0.333333      1.000000
 -0.375000  0.125000  0.333333      1.000000
 -0.250000  0.125000  0.333333      1.000000
 -0.125000  0.125000  0.333333      1.000000
  0.000000  0.250000  0.333333      1.000000
  0.125000  0.250000  0.333333      1.000000
  0.250000  0.250000  0.333333      1.000000
  0.375000  0.250000  0.333333      1.000000
  0.500000  0.250000  0.333333      1.000000
 -0.375000  0.250000  0.333333      1.000000
 -0.250000  0.250000  0.333333      1.000000
 -0.125000  0.250000  0.333333      1.000000
 -0.000000  0.375000  0.333333      1.000000
  0.125000  0.375000  0.333333      1.000000
  0.250000  0.375000  0.333333      1.000000
  0.375000  0.375000  0.333333      1.000000
  0.500000  0.375000  0.333333      1.000000
 -0.375000  0.375000  0.333333      1.000000
 -0.250000  0.375000  0.333333      1.000000
 -0.125000  0.375000  0.333333      1.000000
  0.000000  0.500000  0.333333      1.000000
  0.125000  0.500000  0.333333      1.000000
  0.250000  0.500000  0.333333      1.000000
  0.375000  0.500000  0.333333      1.000000
  0.500000  0.500000  0.333333      1.000000
 -0.375000  0.500000  0.333333      1.000000
 -0.250000  0.500000  0.333333      1.000000
 -0.125000  0.500000  0.333333      1.000000
 -0.000000 -0.375000  0.333333      1.000000
  0.125000 -0.375000  0.333333      1.000000
  0.250000 -0.375000  0.333333      1.000000
  0.375000 -0.375000  0.333333      1.000000
  0.500000 -0.375000  0.333333      1.000000
 -0.375000 -0.375000  0.333333      1.000000
 -0.250000 -0.375000  0.333333      1.000000
 -0.125000 -0.375000  0.333333      1.000000
 -0.000000 -0.250000  0.333333      1.000000
  0.125000 -0.250000  0.333333      1.000000
  0.250000 -0.250000  0.333333      1.000000
  0.375000 -0.250000  0.333333      1.000000
  0.500000 -0.250000  0.333333      1.000000
 -0.375000 -0.250000  0.333333      1.000000
 -0.250000 -0.250000  0.333333      1.000000
 -0.125000 -0.250000  0.333333      1.000000
 -0.000000 -0.125000  0.333333      1.000000
  0.125000 -0.125000  0.333333      1.000000
  0.250000 -0.125000  0.333333      1.000000
  0.375000 -0.125000  0.333333      1.000000
  0.500000 -0.125000  0.333333      1.000000
 -0.375000 -0.125000  0.333333      1.000000
 -0.250000 -0.125000  0.333333      1.000000
 -0.125000 -0.125000  0.333333      1.000000
 -0.000000  0.000000  0.500000      1.000000
  0.125000  0.000000  0.500000      1.000000
  0.250000 -0.000000  0.500000      1.000000
  0.375000  0.000000  0.500000      1.000000
  0.500000 -0.000000  0.500000      1.000000
 -0.375000  0.000000  0.500000      1.000000
 -0.250000 -0.000000  0.500000      1.000000
 -0.125000  0.000000  0.500000      1.000000
  0.000000  0.125000  0.500000      1.000000
  0.125000  0.125000  0.500000      1.000000
  0.250000  0.125000  0.500000      1.000000
  0.375000  0.125000  0.500000      1.000000
  0.500000  0.125000  0.500000      1.000000
 -0.375000  0.125000  0.500000      1.000000
 -0.250000  0.125000  0.500000      1.000000
 -0.125000  0.125000  0.500000      1.000000
  0.000000  0.250000  0.500000      1.000000
  0.125000  0.250000  0.500000      1.000000
  0.250000  0.250000  0.500000      1.000000
  0.375000  0.250000  0.500000      1.000000
  0.500000  0.250000  0.500000      1.000000
 -0.375000  0.250000  0.500000      1.000000
 -0.250000  0.250000  0.500000      1.000000
 -0.125000  0.250000  0.500000      1.000000
 -0.000000  0.375000  0.500000      1.000000
  0.125000  0.375000  0.500000      1.000000
  0.250000  0.375000  0.500000      1.000000
  0.375000  0.375000  0.500000      1.000000
  0.500000  0.375000  0.500000      1.000000
 -0.375000  0.375000  0.500000      1.000000
 -0.250000  0.375000  0.500000      1.000000
 -0.125000  0.375000  0.500000      1.000000
  0.000000  0.500000  0.500000      1.000000
  0.125000  0.500000  0.500000      1.000000
  0.250000  0.500000  0.500000      1.000000
  0.375000  0.500000  0.500000      1.000000
  0.500000  0.500000  0.500000      1.000000
 -0.375000  0.500000  0.500000      1.000000
 -0.250000  0.500000  0.500000      1.000000
 -0.125000  0.500000  0.500000      1.000000
 -0.000000 -0.375000  0.500000      1.000000
  0.125000 -0.375000  0.500000      1.000000
  0.250000 -0.375000  0.500000      1.000000
  0.375000 -0.375000  0.500000      1.000000
  0.500000 -0.375000  0.500000      1.000000
 -0.375000 -0.375000  0.500000      1.000000
 -0.250000 -0.375000  0.500000      1.000000
 -0.125000 -0.375000  0.500000      1.000000
 -0.000000 -0.250000  0.500000      1.000000
  0.125000 -0.250000  0.500000      1.000000
  0.250000 -0.250000  0.500000      1.000000
  0.375000 -0.250000  0.500000      1.000000
  0.500000 -0.250000  0.500000      1.000000
 -0.375000 -0.250000  0.500000      1.000000
 -0.250000 -0.250000  0.500000      1.000000
 -0.125000 -0.250000  0.500000      1.000000
 -0.000000 -0.125000  0.500000      1.000000
  0.125000 -0.125000  0.500000      1.000000
  0.250000 -0.125000  0.500000      1.000000
  0.375000 -0.125000  0.500000      1.000000
  0.500000 -0.125000  0.500000      1.000000
 -0.375000 -0.125000  0.500000      1.000000
 -0.250000 -0.125000  0.500000      1.000000
 -0.125000 -0.125000  0.500000      1.000000
  0.000000 -0.000000 -0.333333      1.000000
  0.125000 -0.000000 -0.333333      1.000000
  0.250000  0.000000 -0.333333      1.000000
  0.375000 -0.000000 -0.333333      1.000000
  0.500000 -0.000000 -0.333333      1.000000
 -0.375000  0.000000 -0.333333      1.000000
 -0.250000 -0.000000 -0.333333      1.000000
 -0.125000  0.000000 -0.333333      1.000000
  0.000000  0.125000 -0.333333      1.000000
  0.125000  0.125000 -0.333333      1.000000
  0.250000  0.125000 -0.333333      1.000000
  0.375000  0.125000 -0.333333      1.000000
  0.500000  0.125000 -0.333333      1.000000
 -0.375000  0.125000 -0.333333      1.000000
 -0.250000  0.125000 -0.333333      1.000000
 -0.125000  0.125000 -0.333333      1.000000
  0.000000  0.250000 -0.333333      1.000000
  0.125000  0.250000 -0.333333      1.000000
  0.250000  0.250000 -0.333333      1.000000
  0.375000  0.250000 -0.333333      1.000000
  0.500000  0.250000 -0.333333      1.000000
 -0.375000  0.250000 -0.333333      1.000000
 -0.250000  0.250000 -0.333333      1.000000
 -0.125000  0.250000 -0.333333      1.000000
  0.000000  0.375000 -0.333333      1.000000
  0.125000  0.375000 -0.333333      1.000000
  0.250000  0.375000 -0.333333      1.000000
  0.375000  0.375000 -0.333333      1.000000
  0.500000  0.375000 -0.333333      1.000000
 -0.375000  0.375000 -0.333333      1.000000
 -0.250000  0.375000 -0.333333      1.000000
 -0.125000  0.375000 -0.333333      1.000000
  0.000000  0.500000 -0.333333      1.000000
  0.125000  0.500000 -0.333333      1.000000
  0.250000  0.500000 -0.333333      1.000000
  0.375000  0.500000 -0.333333      1.000000
  0.500000  0.500000 -0.333333      1.000000
 -0.375000  0.500000 -0.333333      1.000000
 -0.250000  0.500000 -0.333333      1.000000
 -0.125000  0.500000 -0.333333      1.000000
  0.000000 -0.375000 -0.333333      1.000000
  0.125000 -0.375000 -0.333333      1.000000
  0.250000 -0.375000 -0.333333      1.000000
  0.375000 -0.375000 -0.333333      1.000000
  0.500000 -0.375000 -0.333333      1.000000
 -0.375000 -0.375000 -0.333333      1.000000
 -0.250000 -0.375000 -0.333333      1.000000
 -0.125000 -0.375000 -0.333333      1.000000
 -0.000000 -0.250000 -0.333333      1.000000
  0.125000 -0.250000 -0.333333      1.000000
  0.250000 -0.250000 -0.333333      1.000000
  0.375000 -0.250000 -0.333333      1.000000
  0.500000 -0.250000 -0.333333      1.000000
 -0.375000 -0.250000 -0.333333      1.000000
 -0.250000 -0.250000 -0.333333      1.000000
 -0.125000 -0.250000 -0.333333      1.000000
 -0.000000 -0.125000 -0.333333      1.000000
  0.125000 -0.125000 -0.333333      1.000000
  0.250000 -0.125000 -0.333333      1.000000
  0.375000 -0.125000 -0.333333      1.000000
  0.500000 -0.125000 -0.333333      1.000000
 -0.375000 -0.125000 -0.333333      1.000000
 -0.250000 -0.125000 -0.333333      1.000000
 -0.125000 -0.125000 -0.333333      1.000000
  0.000000 -0.000000 -0.166667      1.000000
  0.125000  0.000000 -0.166667      1.000000
  0.250000 -0.000000 -0.166667      1.000000
  0.375000  0.000000 -0.166667      1.000000
  0.500000  0.000000 -0.166667      1.000000
 -0.375000 -0.000000 -0.166667      1.000000
 -0.250000 -0.000000 -0.166667      1.000000
 -0.125000 -0.000000 -0.166667      1.000000
  0.000000  0.125000 -0.166667      1.000000
  0.125000  0.125000 -0.166667      1.000000
  0.250000  0.125000 -0.166667      1.000000
  0.375000  0.125000 -0.166667      1.000000
  0.500000  0.125000 -0.166667      1.000000
 -0.375000  0.125000 -0.166667      1.000000
 -0.250000  0.125000 -0.166667      1.000000
 -0.125000  0.125000 -0.166667      1.000000
  0.000000  0.250000 -0.166667      1.000000
  0.125000  0.250000 -0.166667      1.000000
  0.250000  0.250000 -0.166667      1.000000
  0.375000  0.250000 -0.166667      1.000000
  0.500000  0.250000 -0.166667      1.000000
 -0.375000  0.250000 -0.166667      1.000000
 -0.250000  0.250000 -0.166667      1.000000
 -0.125000  0.250000 -0.166667      1.000000
  0.000000  0.375000 -0.166667      1.000000
  0.125000  0.375000 -0.166667      1.000000
  0.250000  0.375000 -0.166667      1.000000
  0.375000  0.375000 -0.166667      1.000000
  0.500000  0.375000 -0.166667      1.000000
 -0.375000  0.375000 -0.166667      1.000000
 -0.250000  0.375000 -0.166667      1.000000
 -0.125000  0.375000 -0.166667      1.000000
  0.000000  0.500000 -0.166667      1.000000
  0.125000  0.500000 -0.166667      1.000000
  0.250000  0.500000 -0.166667      1.000000
  0.375000  0.500000 -0.166667      1.000000
  0.500000  0.500000 -0.166667      1.000000
 -0.375000  0.500000 -0.166667      1.000000
 -0.250000  0.500000 -0.166667      1.000000
 -0.125000  0.500000 -0.166667      1.000000
 -0.000000 -0.375000 -0.166667      1.000000
  0.125000 -0.375000 -0.166667      1.000000
  0.250000 -0.375000 -0.166667      1.000000
  0.375000 -0.375000 -0.166667      1.000000
  0.500000 -0.375000 -0.166667      1.000000
 -0.375000 -0.375000 -0.166667      1.000000
 -0.250000 -0.375000 -0.166667      1.000000
 -0.125000 -0.375000 -0.166667      1.000000
 -0.000000 -0.250000 -0.166667      1.000000
  0.125000 -0.250000 -0.166667      1.000000
  0.250000 -0.250000 -0.166667      1.000000
  0.375000 -0.250000 -0.166667      1.000000
  0.500000 -0.250000 -0.166667      1.000000
 -0.375000 -0.250000 -0.166667      1.000000
 -0.250000 -0.250000 -0.166667      1.000000
 -0.125000 -0.250000 -0.166667      1.000000
 -0.000000 -0.125000 -0.166667      1.000000
  0.125000 -0.125000 -0.166667      1.000000
  0.250000 -0.125000 -0.166667      1.000000
  0.375000 -0.125000 -0.166667      1.000000
  0.500000 -0.125000 -0.166667      1.000000
 -0.375000 -0.125000 -0.166667      1.000000
 -0.250000 -0.125000 -0.166667      1.000000
 -0.125000 -0.125000 -0.166667      1.000000
 
 Following cartesian coordinates:
            Coordinates               Weight
  0.000000  0.000000  0.000000      1.000000
  0.034762 -0.028743  0.000000      1.000000
  0.069524 -0.057485  0.000000      1.000000
  0.104286 -0.086228  0.000000      1.000000
  0.139048 -0.114971  0.000001      1.000000
 -0.104286  0.086228 -0.000000      1.000000
 -0.069524  0.057485 -0.000000      1.000000
 -0.034762  0.028743 -0.000000      1.000000
  0.034762  0.028743 -0.000000      1.000000
  0.069524 -0.000000 -0.000000      1.000000
  0.104286 -0.028743  0.000000      1.000000
  0.139048 -0.057485  0.000000      1.000000
  0.173810 -0.086228  0.000000      1.000000
 -0.069524  0.114971 -0.000001      1.000000
 -0.034762  0.086228 -0.000000      1.000000
 -0.000000  0.057485 -0.000000      1.000000
  0.069524  0.057485 -0.000000      1.000000
  0.104286  0.028743 -0.000000      1.000000
  0.139048 -0.000000 -0.000000      1.000000
  0.173810 -0.028743  0.000000      1.000000
  0.208572 -0.057485  0.000000      1.000000
 -0.034762  0.143713 -0.000001      1.000000
 -0.000000  0.114971 -0.000001      1.000000
  0.034762  0.086228 -0.000000      1.000000
  0.104286  0.086228 -0.000000      1.000000
  0.139048  0.057485 -0.000000      1.000000
  0.173810  0.028743 -0.000000      1.000000
  0.208572 -0.000000 -0.000000      1.000000
  0.243334 -0.028743  0.000000      1.000000
 -0.000000  0.172456 -0.000001      1.000000
  0.034762  0.143713 -0.000001      1.000000
  0.069524  0.114971 -0.000001      1.000000
  0.139048  0.114971 -0.000001      1.000000
  0.173810  0.086228 -0.000000      1.000000
  0.208572  0.057485 -0.000000      1.000000
  0.243334  0.028743 -0.000000      1.000000
  0.278096 -0.000000 -0.000000      1.000000
  0.034762  0.201198 -0.000001      1.000000
  0.069524  0.172456 -0.000001      1.000000
  0.104286  0.143713 -0.000001      1.000000
 -0.104286 -0.086228  0.000000      1.000000
 -0.069524 -0.114971  0.000001      1.000000
 -0.034762 -0.143713  0.000001      1.000000
  0.000000 -0.172456  0.000001      1.000000
  0.034762 -0.201198  0.000001      1.000000
 -0.208572  0.000000  0.000000      1.000000
 -0.173810 -0.028743  0.000000      1.000000
 -0.139048 -0.057485  0.000000      1.000000
 -0.069524 -0.057485  0.000000      1.000000
 -0.034762 -0.086228  0.000000      1.000000
  0.000000 -0.114971  0.000001      1.000000
  0.034762 -0.143713  0.000001      1.000000
  0.069524 -0.172456  0.000001      1.000000
 -0.173810  0.028743 -0.000000      1.000000
 -0.139048  0.000000  0.000000      1.000000
 -0.104286 -0.028743  0.000000      1.000000
 -0.034762 -0.028743  0.000000      1.000000
  0.000000 -0.057485  0.000000      1.000000
  0.034762 -0.086228  0.000000      1.000000
  0.069524 -0.114971  0.000001      1.000000
  0.104286 -0.143713  0.000001      1.000000
 -0.139048  0.057485 -0.000000      1.000000
 -0.104286  0.028743 -0.000000      1.000000
 -0.069524  0.000000  0.000000      1.000000
 -0.000000 -0.000000  0.035598      1.000000
  0.034762 -0.028743  0.035599      1.000000
  0.069524 -0.057485  0.035599      1.000000
  0.104286 -0.086228  0.035599      1.000000
  0.139048 -0.114971  0.035599      1.000000
 -0.104286  0.086228  0.035598      1.000000
 -0.069524  0.057485  0.035598      1.000000
 -0.034762  0.028742  0.035598      1.000000
  0.034762  0.028742  0.035598      1.000000
  0.069524 -0.000000  0.035598      1.000000
  0.104286 -0.028743  0.035599      1.000000
  0.139048 -0.057485  0.035599      1.000000
  0.173810 -0.086228  0.035599      1.000000
 -0.069524  0.114970  0.035598      1.000000
 -0.034762  0.086228  0.035598      1.000000
 -0.000000  0.057485  0.035598      1.000000
  0.069524  0.057485  0.035598      1.000000
  0.104286  0.028742  0.035598      1.000000
  0.139048 -0.000000  0.035598      1.000000
  0.173810 -0.028743  0.035599      1.000000
  0.208572 -0.057485  0.035599      1.000000
 -0.034762  0.143713  0.035598      1.000000
 -0.000000  0.114970  0.035598      1.000000
  0.034762  0.086228  0.035598      1.000000
  0.104286  0.086228  0.035598      1.000000
  0.139048  0.057485  0.035598      1.000000
  0.173810  0.028742  0.035598      1.000000
  0.208572 -0.000000  0.035598      1.000000
  0.243334 -0.028743  0.035599      1.000000
 -0.000000  0.172456  0.035598      1.000000
  0.034762  0.143713  0.035598      1.000000
  0.069524  0.114970  0.035598      1.000000
  0.139048  0.114970  0.035598      1.000000
  0.173810  0.086228  0.035598      1.000000
  0.208572  0.057485  0.035598      1.000000
  0.243334  0.028742  0.035598      1.000000
  0.278096 -0.000000  0.035598      1.000000
  0.034762  0.201198  0.035597      1.000000
  0.069524  0.172456  0.035598      1.000000
  0.104286  0.143713  0.035598      1.000000
 -0.104286 -0.086228  0.035599      1.000000
 -0.069524 -0.114971  0.035599      1.000000
 -0.034762 -0.143713  0.035599      1.000000
 -0.000000 -0.172456  0.035599      1.000000
  0.034762 -0.201199  0.035599      1.000000
 -0.208572 -0.000000  0.035598      1.000000
 -0.173810 -0.028743  0.035599      1.000000
 -0.139048 -0.057485  0.035599      1.000000
 -0.069524 -0.057485  0.035599      1.000000
 -0.034762 -0.086228  0.035599      1.000000
 -0.000000 -0.114971  0.035599      1.000000
  0.034762 -0.143713  0.035599      1.000000
  0.069524 -0.172456  0.035599      1.000000
 -0.173810  0.028742  0.035598      1.000000
 -0.139048 -0.000000  0.035598      1.000000
 -0.104286 -0.028743  0.035599      1.000000
 -0.034762 -0.028743  0.035599      1.000000
 -0.000000 -0.057485  0.035599      1.000000
  0.034762 -0.086228  0.035599      1.000000
  0.069524 -0.114971  0.035599      1.000000
  0.104286 -0.143713  0.035599      1.000000
 -0.139048  0.057485  0.035598      1.000000
 -0.104286  0.028742  0.035598      1.000000
 -0.069524 -0.000000  0.035598      1.000000
 -0.000000 -0.000000  0.071197      1.000000
  0.034762 -0.028743  0.071197      1.000000
  0.069524 -0.057486  0.071197      1.000000
  0.104286 -0.086228  0.071197      1.000000
  0.139048 -0.114971  0.071197      1.000000
 -0.104286  0.086228  0.071196      1.000000
 -0.069524  0.057485  0.071197      1.000000
 -0.034762  0.028742  0.071197      1.000000
  0.034762  0.028742  0.071197      1.000000
  0.069524 -0.000000  0.071197      1.000000
  0.104286 -0.028743  0.071197      1.000000
  0.139048 -0.057486  0.071197      1.000000
  0.173810 -0.086228  0.071197      1.000000
 -0.069524  0.114970  0.071196      1.000000
 -0.034762  0.086228  0.071196      1.000000
 -0.000000  0.057485  0.071197      1.000000
  0.069524  0.057485  0.071197      1.000000
  0.104286  0.028742  0.071197      1.000000
  0.139048 -0.000000  0.071197      1.000000
  0.173810 -0.028743  0.071197      1.000000
  0.208572 -0.057486  0.071197      1.000000
 -0.034762  0.143713  0.071196      1.000000
 -0.000000  0.114970  0.071196      1.000000
  0.034762  0.086228  0.071196      1.000000
  0.104286  0.086228  0.071196      1.000000
  0.139048  0.057485  0.071197      1.000000
  0.173810  0.028742  0.071197      1.000000
  0.208572 -0.000000  0.071197      1.000000
  0.243334 -0.028743  0.071197      1.000000
 -0.000000  0.172455  0.071196      1.000000
  0.034762  0.143713  0.071196      1.000000
  0.069524  0.114970  0.071196      1.000000
  0.139048  0.114970  0.071196      1.000000
  0.173810  0.086228  0.071196      1.000000
  0.208572  0.057485  0.071197      1.000000
  0.243334  0.028742  0.071197      1.000000
  0.278096 -0.000000  0.071197      1.000000
  0.034762  0.201198  0.071196      1.000000
  0.069524  0.172455  0.071196      1.000000
  0.104286  0.143713  0.071196      1.000000
 -0.104286 -0.086228  0.071197      1.000000
 -0.069524 -0.114971  0.071197      1.000000
 -0.034762 -0.143714  0.071197      1.000000
 -0.000000 -0.172456  0.071198      1.000000
  0.034762 -0.201199  0.071198      1.000000
 -0.208572 -0.000000  0.071197      1.000000
 -0.173810 -0.028743  0.071197      1.000000
 -0.139048 -0.057486  0.071197      1.000000
 -0.069524 -0.057486  0.071197      1.000000
 -0.034762 -0.086228  0.071197      1.000000
 -0.000000 -0.114971  0.071197      1.000000
  0.034762 -0.143714  0.071197      1.000000
  0.069524 -0.172456  0.071198      1.000000
 -0.173810  0.028742  0.071197      1.000000
 -0.139048 -0.000000  0.071197      1.000000
 -0.104286 -0.028743  0.071197      1.000000
 -0.034762 -0.028743  0.071197      1.000000
 -0.000000 -0.057486  0.071197      1.000000
  0.034762 -0.086228  0.071197      1.000000
  0.069524 -0.114971  0.071197      1.000000
  0.104286 -0.143714  0.071197      1.000000
 -0.139048  0.057485  0.071197      1.000000
 -0.104286  0.028742  0.071197      1.000000
 -0.069524 -0.000000  0.071197      1.000000
 -0.000000 -0.000001  0.106795      1.000000
  0.034762 -0.028743  0.106795      1.000000
  0.069524 -0.057486  0.106795      1.000000
  0.104286 -0.086228  0.106796      1.000000
  0.139048 -0.114971  0.106796      1.000000
 -0.104286  0.086227  0.106795      1.000000
 -0.069524  0.057485  0.106795      1.000000
 -0.034762  0.028742  0.106795      1.000000
  0.034762  0.028742  0.106795      1.000000
  0.069524 -0.000001  0.106795      1.000000
  0.104286 -0.028743  0.106795      1.000000
  0.139048 -0.057486  0.106795      1.000000
  0.173810 -0.086228  0.106796      1.000000
 -0.069524  0.114970  0.106795      1.000000
 -0.034762  0.086227  0.106795      1.000000
 -0.000000  0.057485  0.106795      1.000000
  0.069524  0.057485  0.106795      1.000000
  0.104286  0.028742  0.106795      1.000000
  0.139048 -0.000001  0.106795      1.000000
  0.173810 -0.028743  0.106795      1.000000
  0.208572 -0.057486  0.106795      1.000000
 -0.034762  0.143713  0.106795      1.000000
 -0.000000  0.114970  0.106795      1.000000
  0.034762  0.086227  0.106795      1.000000
  0.104286  0.086227  0.106795      1.000000
  0.139048  0.057485  0.106795      1.000000
  0.173810  0.028742  0.106795      1.000000
  0.208572 -0.000001  0.106795      1.000000
  0.243334 -0.028743  0.106795      1.000000
 -0.000000  0.172455  0.106794      1.000000
  0.034762  0.143713  0.106795      1.000000
  0.069524  0.114970  0.106795      1.000000
  0.139048  0.114970  0.106795      1.000000
  0.173810  0.086227  0.106795      1.000000
  0.208572  0.057485  0.106795      1.000000
  0.243334  0.028742  0.106795      1.000000
  0.278096 -0.000001  0.106795      1.000000
  0.034762  0.201198  0.106794      1.000000
  0.069524  0.172455  0.106794      1.000000
  0.104286  0.143713  0.106795      1.000000
 -0.104286 -0.086228  0.106796      1.000000
 -0.069524 -0.114971  0.106796      1.000000
 -0.034762 -0.143714  0.106796      1.000000
 -0.000000 -0.172456  0.106796      1.000000
  0.034762 -0.201199  0.106796      1.000000
 -0.208572 -0.000001  0.106795      1.000000
 -0.173810 -0.028743  0.106795      1.000000
 -0.139048 -0.057486  0.106795      1.000000
 -0.069524 -0.057486  0.106795      1.000000
 -0.034762 -0.086228  0.106796      1.000000
 -0.000000 -0.114971  0.106796      1.000000
  0.034762 -0.143714  0.106796      1.000000
  0.069524 -0.172456  0.106796      1.000000
 -0.173810  0.028742  0.106795      1.000000
 -0.139048 -0.000001  0.106795      1.000000
 -0.104286 -0.028743  0.106795      1.000000
 -0.034762 -0.028743  0.106795      1.000000
 -0.000000 -0.057486  0.106795      1.000000
  0.034762 -0.086228  0.106796      1.000000
  0.069524 -0.114971  0.106796      1.000000
  0.104286 -0.143714  0.106796      1.000000
 -0.139048  0.057485  0.106795      1.000000
 -0.104286  0.028742  0.106795      1.000000
 -0.069524 -0.000001  0.106795      1.000000
  0.000000  0.000000 -0.071197      1.000000
  0.034762 -0.028742 -0.071197      1.000000
  0.069524 -0.057485 -0.071197      1.000000
  0.104286 -0.086228 -0.071196      1.000000
  0.139048 -0.114970 -0.071196      1.000000
 -0.104286  0.086228 -0.071197      1.000000
 -0.069524  0.057486 -0.071197      1.000000
 -0.034762  0.028743 -0.071197      1.000000
  0.034762  0.028743 -0.071197      1.000000
  0.069524  0.000000 -0.071197      1.000000
  0.104286 -0.028742 -0.071197      1.000000
  0.139048 -0.057485 -0.071197      1.000000
  0.173810 -0.086228 -0.071196      1.000000
 -0.069524  0.114971 -0.071197      1.000000
 -0.034762  0.086228 -0.071197      1.000000
  0.000000  0.057486 -0.071197      1.000000
  0.069524  0.057486 -0.071197      1.000000
  0.104286  0.028743 -0.071197      1.000000
  0.139048  0.000000 -0.071197      1.000000
  0.173810 -0.028742 -0.071197      1.000000
  0.208572 -0.057485 -0.071197      1.000000
 -0.034762  0.143714 -0.071197      1.000000
  0.000000  0.114971 -0.071197      1.000000
  0.034762  0.086228 -0.071197      1.000000
  0.104286  0.086228 -0.071197      1.000000
  0.139048  0.057486 -0.071197      1.000000
  0.173810  0.028743 -0.071197      1.000000
  0.208572  0.000000 -0.071197      1.000000
  0.243334 -0.028742 -0.071197      1.000000
  0.000000  0.172456 -0.071198      1.000000
  0.034762  0.143714 -0.071197      1.000000
  0.069524  0.114971 -0.071197      1.000000
  0.139048  0.114971 -0.071197      1.000000
  0.173810  0.086228 -0.071197      1.000000
  0.208572  0.057486 -0.071197      1.000000
  0.243334  0.028743 -0.071197      1.000000
  0.278096  0.000000 -0.071197      1.000000
  0.034762  0.201199 -0.071198      1.000000
  0.069524  0.172456 -0.071198      1.000000
  0.104286  0.143714 -0.071197      1.000000
 -0.104286 -0.086228 -0.071196      1.000000
 -0.069524 -0.114970 -0.071196      1.000000
 -0.034762 -0.143713 -0.071196      1.000000
  0.000000 -0.172455 -0.071196      1.000000
  0.034762 -0.201198 -0.071196      1.000000
 -0.208572  0.000000 -0.071197      1.000000
 -0.173810 -0.028742 -0.071197      1.000000
 -0.139048 -0.057485 -0.071197      1.000000
 -0.069524 -0.057485 -0.071197      1.000000
 -0.034762 -0.086228 -0.071196      1.000000
  0.000000 -0.114970 -0.071196      1.000000
  0.034762 -0.143713 -0.071196      1.000000
  0.069524 -0.172455 -0.071196      1.000000
 -0.173810  0.028743 -0.071197      1.000000
 -0.139048  0.000000 -0.071197      1.000000
 -0.104286 -0.028742 -0.071197      1.000000
 -0.034762 -0.028742 -0.071197      1.000000
  0.000000 -0.057485 -0.071197      1.000000
  0.034762 -0.086228 -0.071196      1.000000
  0.069524 -0.114970 -0.071196      1.000000
  0.104286 -0.143713 -0.071196      1.000000
 -0.139048  0.057486 -0.071197      1.000000
 -0.104286  0.028743 -0.071197      1.000000
 -0.069524  0.000000 -0.071197      1.000000
  0.000000  0.000000 -0.035598      1.000000
  0.034762 -0.028742 -0.035598      1.000000
  0.069524 -0.057485 -0.035598      1.000000
  0.104286 -0.086228 -0.035598      1.000000
  0.139048 -0.114970 -0.035598      1.000000
 -0.104286  0.086228 -0.035599      1.000000
 -0.069524  0.057485 -0.035599      1.000000
 -0.034762  0.028743 -0.035599      1.000000
  0.034762  0.028743 -0.035599      1.000000
  0.069524  0.000000 -0.035598      1.000000
  0.104286 -0.028742 -0.035598      1.000000
  0.139048 -0.057485 -0.035598      1.000000
  0.173810 -0.086228 -0.035598      1.000000
 -0.069524  0.114971 -0.035599      1.000000
 -0.034762  0.086228 -0.035599      1.000000
  0.000000  0.057485 -0.035599      1.000000
  0.069524  0.057485 -0.035599      1.000000
  0.104286  0.028743 -0.035599      1.000000
  0.139048  0.000000 -0.035598      1.000000
  0.173810 -0.028742 -0.035598      1.000000
  0.208572 -0.057485 -0.035598      1.000000
 -0.034762  0.143713 -0.035599      1.000000
  0.000000  0.114971 -0.035599      1.000000
  0.034762  0.086228 -0.035599      1.000000
  0.104286  0.086228 -0.035599      1.000000
  0.139048  0.057485 -0.035599      1.000000
  0.173810  0.028743 -0.035599      1.000000
  0.208572  0.000000 -0.035598      1.000000
  0.243334 -0.028742 -0.035598      1.000000
  0.000000  0.172456 -0.035599      1.000000
  0.034762  0.143713 -0.035599      1.000000
  0.069524  0.114971 -0.035599      1.000000
  0.139048  0.114971 -0.035599      1.000000
  0.173810  0.086228 -0.035599      1.000000
  0.208572  0.057485 -0.035599      1.000000
  0.243334  0.028743 -0.035599      1.000000
  0.278096  0.000000 -0.035598      1.000000
  0.034762  0.201199 -0.035599      1.000000
  0.069524  0.172456 -0.035599      1.000000
  0.104286  0.143713 -0.035599      1.000000
 -0.104286 -0.086228 -0.035598      1.000000
 -0.069524 -0.114970 -0.035598      1.000000
 -0.034762 -0.143713 -0.035598      1.000000
  0.000000 -0.172456 -0.035598      1.000000
  0.034762 -0.201198 -0.035597      1.000000
 -0.208572  0.000000 -0.035598      1.000000
 -0.173810 -0.028742 -0.035598      1.000000
 -0.139048 -0.057485 -0.035598      1.000000
 -0.069524 -0.057485 -0.035598      1.000000
 -0.034762 -0.086228 -0.035598      1.000000
  0.000000 -0.114970 -0.035598      1.000000
  0.034762 -0.143713 -0.035598      1.000000
  0.069524 -0.172456 -0.035598      1.000000
 -0.173810  0.028743 -0.035599      1.000000
 -0.139048  0.000000 -0.035598      1.000000
 -0.104286 -0.028742 -0.035598      1.000000
 -0.034762 -0.028742 -0.035598      1.000000
  0.000000 -0.057485 -0.035598      1.000000
  0.034762 -0.086228 -0.035598      1.000000
  0.069524 -0.114970 -0.035598      1.000000
  0.104286 -0.143713 -0.035598      1.000000
 -0.139048  0.057485 -0.035599      1.000000
 -0.104286  0.028743 -0.035599      1.000000
 -0.069524  0.000000 -0.035598      1.000000
 


--------------------------------------------------------------------------------------------------------




 Dimension of arrays:
   k-points           NKPTS =    384   k-points in BZ     NKDIM =    384   number of bands    NBANDS=     32
   number of dos      NEDOS =    301   number of ions     NIONS =      4
   non local maximal  LDIM  =      6   non local SUM 2l+1 LMDIM =     18
   total plane-waves  NPLWV =  23040
   max r-space proj   IRMAX =      1   max aug-charges    IRDMAX=  24048
   dimension x,y,z NGX =    24 NGY =   24 NGZ =   40
   dimension x,y,z NGXF=    48 NGYF=   48 NGZF=   80
   support grid    NGXF=    48 NGYF=   48 NGZF=   80
   ions per type =               2   2
   NGX,Y,Z   is equivalent  to a cutoff of  14.14, 14.14, 14.20 a.u.
   NGXF,Y,Z  is equivalent  to a cutoff of  28.28, 28.28, 28.41 a.u.

 SYSTEM =  unknown system                          
 POSCAR =  Ga N                                    

 Startparameter for this run:
   NWRITE =      2    write-flag & timer
   PREC   = accura    normal or accurate (medium, high low for compatibility)
   ISTART =      0    job   : 0-new  1-cont  2-samecut
   ICHARG =      2    charge: 1-file 2-atom 10-const
   ISPIN  =      1    spin polarized calculation?
   LNONCOLLINEAR =      F non collinear calculations
   LSORBIT =      F    spin-orbit coupling
   INIWAV =      1    electr: 0-lowe 1-rand  2-diag
   LASPH  =      F    aspherical Exc in radial PAW
 Electronic Relaxation 1
   ENCUT  =  600.0 eV  44.10 Ry    6.64 a.u.   5.64  5.64  9.35*2*pi/ulx,y,z
   ENINI  =  600.0     initial cutoff
   ENAUG  =  627.1 eV  augmentation charge cutoff
   NELM   =     60;   NELMIN=  2; NELMDL= -5     # of ELM steps 
   EDIFF  = 0.1E-06   stopping-criterion for ELM
   LREAL  =      F    real-space projection
   NLSPLINE    = F    spline interpolate recip. space projectors
   LCOMPAT=      F    compatible to vasp.4.4
   GGA_COMPAT  = T    GGA compatible to vasp.4.4-vasp.4.6
   LMAXPAW     = -100 max onsite density
   LMAXMIX     =    2 max onsite mixed and CHGCAR
   VOSKOWN=      0    Vosko Wilk Nusair interpolation
   ROPT   =    0.00000   0.00000
 Ionic relaxation
   EDIFFG = 0.1E-05   stopping-criterion for IOM
   NSW    =      0    number of steps for IOM
   NBLOCK =      1;   KBLOCK =      1    inner block; outer block 
   IBRION =     -1    ionic relax: 0-MD 1-quasi-New 2-CG
   NFREE  =      0    steps in history (QN), initial steepest desc. (CG)
   ISIF   =      2    stress and relaxation
   IWAVPR =     10    prediction:  0-non 1-charg 2-wave 3-comb
   ISYM   =     -1    0-nonsym 1-usesym 2-fastsym
   LCORR  =      T    Harris-Foulkes like correction to forces

   POTIM  = 0.5000    time-step for ionic-motion
   TEIN   =    0.0    initial temperature
   TEBEG  =    0.0;   TEEND  =   0.0 temperature during run
   SMASS  =  -3.00    Nose mass-parameter (am)
   estimated Nose-frequenzy (Omega)   =  0.10E-29 period in steps = 0.13E+47 mass=  -0.182E-27a.u.
   SCALEE = 1.0000    scale energy and forces
   NPACO  =    256;   APACO  = 10.0  distance and # of slots for P.C.
   PSTRESS=    0.0 pullay stress

  Mass of Ions in am
   POMASS =  69.72 14.00
  Ionic Valenz
   ZVAL   =  13.00  5.00
  Atomic Wigner-Seitz radii
   RWIGS  =  -1.00 -1.00
  virtual crystal weights 
   VCA    =   1.00  1.00
   NELECT =      36.0000    total number of electrons
   NUPDOWN=      -1.0000    fix difference up-down

 DOS related values:
   EMIN   =  10.00;   EMAX   =-10.00  energy-range for DOS
   EFERMI =   0.00
   ISMEAR =     0;   SIGMA  =   0.05  broadening in eV -4-tet -1-fermi 0-gaus

 Electronic relaxation 2 (details)
   IALGO  =     38    algorithm
   LDIAG  =      T    sub-space diagonalisation (order eigenvalues)
   LSUBROT=      F    optimize rotation matrix (better conditioning)
   TURBO    =      0    0=normal 1=particle mesh
   IRESTART =      0    0=no restart 2=restart with 2 vectors
   NREBOOT  =      0    no. of reboots
   NMIN     =      0    reboot dimension
   EREF     =   0.00    reference energy to select bands
   IMIX   =      4    mixing-type and parameters
     AMIX     =   0.40;   BMIX     =  1.00
     AMIX_MAG =   1.60;   BMIX_MAG =  1.00
     AMIN     =   0.10
     WC   =   100.;   INIMIX=   1;  MIXPRE=   1;  MAXMIX= -45

 Intra band minimization:
   WEIMIN = 0.0000     energy-eigenvalue tresh-hold
   EBREAK =  0.78E-09  absolut break condition
   DEPER  =   0.30     relativ break condition  

   TIME   =   0.40     timestep for ELM

  volume/ion in A,a.u.               =       9.15        61.76
  Fermi-wavevector in a.u.,A,eV,Ry     =   1.627984  3.076443 36.059949  2.650331
  Thomas-Fermi vector in A             =   2.720689
 
 Write flags
   LWAVE        =      F    write WAVECAR
   LDOWNSAMPLE  =      F    k-point downsampling of WAVECAR
   LCHARG       =      F    write CHGCAR
   LVTOT        =      F    write LOCPOT, total local potential
   LVHAR        =      F    write LOCPOT, Hartree potential only
   LELF         =      F    write electronic localiz. function (ELF)
   LORBIT       =      0    0 simple, 1 ext, 2 COOP (PROOUT), +10 PAW based schemes


 Dipole corrections
   LMONO  =      F    monopole corrections only (constant potential shift)
   LDIPOL =      F    correct potential (dipole corrections)
   IDIPOL =      0    1-x, 2-y, 3-z, 4-all directions 
   EPSILON=  1.0000000 bulk dielectric constant

 Exchange correlation treatment:
   GGA     =    PE    GGA type
   LEXCH   =     8    internal setting for exchange type
   LIBXC   =     F    Libxc                    
   VOSKOWN =     0    Vosko Wilk Nusair interpolation
   LHFCALC =     F    Hartree Fock is set to
   LHFONE  =     F    Hartree Fock one center treatment
   AEXX    =    0.0000 exact exchange contribution

 Linear response parameters
   LEPSILON=     F    determine dielectric tensor
   LRPA    =     F    only Hartree local field effects (RPA)
   LNABLA  =     F    use nabla operator in PAW spheres
   LVEL    =     F    velocity operator in full k-point grid
   CSHIFT  =0.1000    complex shift for real part using Kramers Kronig
   OMEGAMAX=  -1.0    maximum frequency
   DEG_THRESHOLD= 0.2000000E-02 threshold for treating states as degnerate
   RTIME   =   -0.100 relaxation time in fs
  (WPLASMAI=    0.000 imaginary part of plasma frequency in eV, 0.658/RTIME)
   DFIELD  = 0.0000000 0.0000000 0.0000000 field for delta impulse in time
 
  Optional k-point grid parameters
   LKPOINTS_OPT  =     F    use optional k-point grid
   KPOINTS_OPT_MODE=     1    mode for optional k-point grid
 
 Orbital magnetization related:
   ORBITALMAG=     F  switch on orbital magnetization
   LCHIMAG   =     F  perturbation theory with respect to B field
   DQ        =  0.001000  dq finite difference perturbation B field
   LLRAUG    =     F  two centre corrections for induced B field



--------------------------------------------------------------------------------------------------------


 Static calculation
 charge density and potential will be updated during run
 non-spin polarized calculation
 Variant of blocked Davidson
 Davidson routine will perform the subspace rotation
 perform sub-space diagonalisation
    after iterative eigenvector-optimisation
 modified Broyden-mixing scheme, WC =      100.0
 initial mixing is a Kerker type mixing with AMIX =  0.4000 and BMIX =      1.0000
 Hartree-type preconditioning will be used
 using additional bands           14
 reciprocal scheme for non local part
 use partial core corrections
 calculate Harris-corrections to forces 
   (improved forces if not selfconsistent)
 use gradient corrections 
 use of overlap-Matrix (Vanderbilt PP)
 Gauss-broadening in eV      SIGMA  =   0.05


--------------------------------------------------------------------------------------------------------


  energy-cutoff  :      600.00
  volume of cell :       36.61
      direct lattice vectors                 reciprocal lattice vectors
     1.797939366 -2.174469529 -0.000011658     0.278096141 -0.229941139  0.000001079
     1.797939367  2.174469530  0.000011669     0.278096141  0.229941139 -0.000001081
     0.000000012  0.000021988  4.681859094    -0.000000001 -0.000001146  0.213590367

  length of vectors
     2.821507345  2.821507346  4.681859094     0.360846770  0.360846769  0.213590367


 
 k-points in units of 2pi/SCALE and weight: KPOINTS created by Atomic Simulation Env
   0.00000000  0.00000000  0.00000000       0.003
   0.03476202 -0.02874264  0.00000013       0.003
   0.06952404 -0.05748528  0.00000027       0.003
   0.10428605 -0.08622793  0.00000040       0.003
   0.13904807 -0.11497057  0.00000054       0.003
  -0.10428605  0.08622793 -0.00000040       0.003
  -0.06952404  0.05748528 -0.00000027       0.003
  -0.03476202  0.02874264 -0.00000013       0.003
   0.03476202  0.02874264 -0.00000014       0.003
   0.06952404 -0.00000000 -0.00000000       0.003
   0.10428605 -0.02874264  0.00000013       0.003
   0.13904807 -0.05748528  0.00000027       0.003
   0.17381009 -0.08622793  0.00000040       0.003
  -0.06952404  0.11497057 -0.00000054       0.003
  -0.03476202  0.08622793 -0.00000040       0.003
  -0.00000000  0.05748528 -0.00000027       0.003
   0.06952404  0.05748528 -0.00000027       0.003
   0.10428605  0.02874264 -0.00000014       0.003
   0.13904807 -0.00000000 -0.00000000       0.003
   0.17381009 -0.02874264  0.00000013       0.003
   0.20857211 -0.05748528  0.00000027       0.003
  -0.03476202  0.14371321 -0.00000067       0.003
  -0.00000000  0.11497057 -0.00000054       0.003
   0.03476202  0.08622793 -0.00000041       0.003
   0.10428605  0.08622793 -0.00000041       0.003
   0.13904807  0.05748528 -0.00000027       0.003
   0.17381009  0.02874264 -0.00000014       0.003
   0.20857211 -0.00000000 -0.00000000       0.003
   0.24333412 -0.02874264  0.00000013       0.003
  -0.00000000  0.17245585 -0.00000081       0.003
   0.03476202  0.14371321 -0.00000068       0.003
   0.06952404  0.11497057 -0.00000054       0.003
   0.13904807  0.11497057 -0.00000054       0.003
   0.17381009  0.08622793 -0.00000041       0.003
   0.20857211  0.05748528 -0.00000027       0.003
   0.24333412  0.02874264 -0.00000014       0.003
   0.27809614 -0.00000000 -0.00000000       0.003
   0.03476202  0.20119850 -0.00000095       0.003
   0.06952404  0.17245585 -0.00000081       0.003
   0.10428605  0.14371321 -0.00000068       0.003
  -0.10428605 -0.08622793  0.00000041       0.003
  -0.06952404 -0.11497057  0.00000054       0.003
  -0.03476202 -0.14371321  0.00000068       0.003
   0.00000000 -0.17245585  0.00000081       0.003
   0.03476202 -0.20119850  0.00000094       0.003
  -0.20857211  0.00000000  0.00000000       0.003
  -0.17381009 -0.02874264  0.00000014       0.003
  -0.13904807 -0.05748528  0.00000027       0.003
  -0.06952404 -0.05748528  0.00000027       0.003
  -0.03476202 -0.08622793  0.00000041       0.003
   0.00000000 -0.11497057  0.00000054       0.003
   0.03476202 -0.14371321  0.00000067       0.003
   0.06952404 -0.17245585  0.00000081       0.003
  -0.17381009  0.02874264 -0.00000013       0.003
  -0.13904807  0.00000000  0.00000000       0.003
  -0.10428605 -0.02874264  0.00000014       0.003
  -0.03476202 -0.02874264  0.00000014       0.003
   0.00000000 -0.05748528  0.00000027       0.003
   0.03476202 -0.08622793  0.00000040       0.003
   0.06952404 -0.11497057  0.00000054       0.003
   0.10428605 -0.14371321  0.00000067       0.003
  -0.13904807  0.05748528 -0.00000027       0.003
  -0.10428605  0.02874264 -0.00000013       0.003
  -0.06952404  0.00000000  0.00000000       0.003
  -0.00000000 -0.00000019  0.03559839       0.003
   0.03476202 -0.02874283  0.03559853       0.003
   0.06952404 -0.05748548  0.03559866       0.003
   0.10428605 -0.08622812  0.03559880       0.003
   0.13904807 -0.11497076  0.03559893       0.003
  -0.10428605  0.08622774  0.03559799       0.003
  -0.06952404  0.05748509  0.03559812       0.003
  -0.03476202  0.02874245  0.03559826       0.003
   0.03476202  0.02874245  0.03559826       0.003
   0.06952404 -0.00000019  0.03559839       0.003
   0.10428605 -0.02874283  0.03559853       0.003
   0.13904807 -0.05748548  0.03559866       0.003
   0.17381009 -0.08622812  0.03559880       0.003
  -0.06952404  0.11497038  0.03559785       0.003
  -0.03476202  0.08622774  0.03559799       0.003
  -0.00000000  0.05748509  0.03559812       0.003
   0.06952404  0.05748509  0.03559812       0.003
   0.10428605  0.02874245  0.03559826       0.003
   0.13904807 -0.00000019  0.03559839       0.003
   0.17381009 -0.02874283  0.03559853       0.003
   0.20857211 -0.05748548  0.03559866       0.003
  -0.03476202  0.14371302  0.03559772       0.003
  -0.00000000  0.11497038  0.03559785       0.003
   0.03476202  0.08622774  0.03559799       0.003
   0.10428605  0.08622774  0.03559799       0.003
   0.13904807  0.05748509  0.03559812       0.003
   0.17381009  0.02874245  0.03559826       0.003
   0.20857211 -0.00000019  0.03559839       0.003
   0.24333412 -0.02874283  0.03559853       0.003
  -0.00000000  0.17245566  0.03559758       0.003
   0.03476202  0.14371302  0.03559772       0.003
   0.06952404  0.11497038  0.03559785       0.003
   0.13904807  0.11497038  0.03559785       0.003
   0.17381009  0.08622774  0.03559799       0.003
   0.20857211  0.05748509  0.03559812       0.003
   0.24333412  0.02874245  0.03559826       0.003
   0.27809614 -0.00000019  0.03559839       0.003
   0.03476202  0.20119831  0.03559745       0.003
   0.06952404  0.17245566  0.03559758       0.003
   0.10428605  0.14371302  0.03559772       0.003
  -0.10428605 -0.08622812  0.03559880       0.003
  -0.06952404 -0.11497076  0.03559893       0.003
  -0.03476202 -0.14371340  0.03559907       0.003
  -0.00000000 -0.17245605  0.03559920       0.003
   0.03476202 -0.20119869  0.03559934       0.003
  -0.20857211 -0.00000019  0.03559839       0.003
  -0.17381009 -0.02874283  0.03559853       0.003
  -0.13904807 -0.05748548  0.03559866       0.003
  -0.06952404 -0.05748548  0.03559866       0.003
  -0.03476202 -0.08622812  0.03559880       0.003
  -0.00000000 -0.11497076  0.03559893       0.003
   0.03476202 -0.14371340  0.03559907       0.003
   0.06952404 -0.17245605  0.03559920       0.003
  -0.17381009  0.02874245  0.03559826       0.003
  -0.13904807 -0.00000019  0.03559839       0.003
  -0.10428605 -0.02874283  0.03559853       0.003
  -0.03476202 -0.02874283  0.03559853       0.003
  -0.00000000 -0.05748548  0.03559866       0.003
   0.03476202 -0.08622812  0.03559880       0.003
   0.06952404 -0.11497076  0.03559893       0.003
   0.10428605 -0.14371340  0.03559907       0.003
  -0.13904807  0.05748509  0.03559812       0.003
  -0.10428605  0.02874245  0.03559826       0.003
  -0.06952404 -0.00000019  0.03559839       0.003
  -0.00000000 -0.00000038  0.07119679       0.003
   0.03476202 -0.02874302  0.07119692       0.003
   0.06952404 -0.05748567  0.07119706       0.003
   0.10428605 -0.08622831  0.07119719       0.003
   0.13904807 -0.11497095  0.07119733       0.003
  -0.10428605  0.08622755  0.07119638       0.003
  -0.06952404  0.05748490  0.07119652       0.003
  -0.03476202  0.02874226  0.07119665       0.003
   0.03476202  0.02874226  0.07119665       0.003
   0.06952404 -0.00000038  0.07119679       0.003
   0.10428605 -0.02874302  0.07119692       0.003
   0.13904807 -0.05748567  0.07119706       0.003
   0.17381009 -0.08622831  0.07119719       0.003
  -0.06952404  0.11497019  0.07119625       0.003
  -0.03476202  0.08622755  0.07119638       0.003
  -0.00000000  0.05748490  0.07119652       0.003
   0.06952404  0.05748490  0.07119652       0.003
   0.10428605  0.02874226  0.07119665       0.003
   0.13904807 -0.00000038  0.07119679       0.003
   0.17381009 -0.02874302  0.07119692       0.003
   0.20857211 -0.05748567  0.07119706       0.003
  -0.03476202  0.14371283  0.07119611       0.003
  -0.00000000  0.11497019  0.07119625       0.003
   0.03476202  0.08622755  0.07119638       0.003
   0.10428605  0.08622755  0.07119638       0.003
   0.13904807  0.05748490  0.07119652       0.003
   0.17381009  0.02874226  0.07119665       0.003
   0.20857211 -0.00000038  0.07119679       0.003
   0.24333412 -0.02874302  0.07119692       0.003
  -0.00000000  0.17245547  0.07119598       0.003
   0.03476202  0.14371283  0.07119611       0.003
   0.06952404  0.11497019  0.07119625       0.003
   0.13904807  0.11497019  0.07119625       0.003
   0.17381009  0.08622755  0.07119638       0.003
   0.20857211  0.05748490  0.07119652       0.003
   0.24333412  0.02874226  0.07119665       0.003
   0.27809614 -0.00000038  0.07119679       0.003
   0.03476202  0.20119811  0.07119584       0.003
   0.06952404  0.17245547  0.07119598       0.003
   0.10428605  0.14371283  0.07119611       0.003
  -0.10428605 -0.08622831  0.07119719       0.003
  -0.06952404 -0.11497095  0.07119733       0.003
  -0.03476202 -0.14371359  0.07119746       0.003
  -0.00000000 -0.17245624  0.07119760       0.003
   0.03476202 -0.20119888  0.07119773       0.003
  -0.20857211 -0.00000038  0.07119679       0.003
  -0.17381009 -0.02874302  0.07119692       0.003
  -0.13904807 -0.05748567  0.07119706       0.003
  -0.06952404 -0.05748567  0.07119706       0.003
  -0.03476202 -0.08622831  0.07119719       0.003
  -0.00000000 -0.11497095  0.07119733       0.003
   0.03476202 -0.14371359  0.07119746       0.003
   0.06952404 -0.17245624  0.07119760       0.003
  -0.17381009  0.02874226  0.07119665       0.003
  -0.13904807 -0.00000038  0.07119679       0.003
  -0.10428605 -0.02874302  0.07119692       0.003
  -0.03476202 -0.02874302  0.07119692       0.003
  -0.00000000 -0.05748567  0.07119706       0.003
   0.03476202 -0.08622831  0.07119719       0.003
   0.06952404 -0.11497095  0.07119733       0.003
   0.10428605 -0.14371359  0.07119746       0.003
  -0.13904807  0.05748490  0.07119652       0.003
  -0.10428605  0.02874226  0.07119665       0.003
  -0.06952404 -0.00000038  0.07119679       0.003
  -0.00000000 -0.00000057  0.10679518       0.003
   0.03476202 -0.02874322  0.10679532       0.003
   0.06952403 -0.05748586  0.10679545       0.003
   0.10428605 -0.08622850  0.10679559       0.003
   0.13904807 -0.11497114  0.10679572       0.003
  -0.10428605  0.08622735  0.10679478       0.003
  -0.06952404  0.05748471  0.10679491       0.003
  -0.03476202  0.02874207  0.10679505       0.003
   0.03476202  0.02874207  0.10679505       0.003
   0.06952403 -0.00000057  0.10679518       0.003
   0.10428605 -0.02874322  0.10679532       0.003
   0.13904807 -0.05748586  0.10679545       0.003
   0.17381009 -0.08622850  0.10679559       0.003
  -0.06952404  0.11497000  0.10679464       0.003
  -0.03476202  0.08622735  0.10679478       0.003
  -0.00000000  0.05748471  0.10679491       0.003
   0.06952403  0.05748471  0.10679491       0.003
   0.10428605  0.02874207  0.10679505       0.003
   0.13904807 -0.00000057  0.10679518       0.003
   0.17381009 -0.02874322  0.10679532       0.003
   0.20857211 -0.05748586  0.10679545       0.003
  -0.03476202  0.14371264  0.10679451       0.003
  -0.00000000  0.11497000  0.10679464       0.003
   0.03476202  0.08622735  0.10679478       0.003
   0.10428605  0.08622735  0.10679478       0.003
   0.13904807  0.05748471  0.10679491       0.003
   0.17381009  0.02874207  0.10679505       0.003
   0.20857211 -0.00000057  0.10679518       0.003
   0.24333412 -0.02874322  0.10679532       0.003
  -0.00000000  0.17245528  0.10679437       0.003
   0.03476202  0.14371264  0.10679451       0.003
   0.06952403  0.11497000  0.10679464       0.003
   0.13904807  0.11497000  0.10679464       0.003
   0.17381009  0.08622735  0.10679478       0.003
   0.20857211  0.05748471  0.10679491       0.003
   0.24333412  0.02874207  0.10679505       0.003
   0.27809614 -0.00000057  0.10679518       0.003
   0.03476202  0.20119792  0.10679424       0.003
   0.06952403  0.17245528  0.10679437       0.003
   0.10428605  0.14371264  0.10679451       0.003
  -0.10428605 -0.08622850  0.10679559       0.003
  -0.06952404 -0.11497114  0.10679572       0.003
  -0.03476202 -0.14371378  0.10679586       0.003
  -0.00000000 -0.17245643  0.10679599       0.003
   0.03476202 -0.20119907  0.10679613       0.003
  -0.20857211 -0.00000057  0.10679518       0.003
  -0.17381009 -0.02874322  0.10679532       0.003
  -0.13904807 -0.05748586  0.10679545       0.003
  -0.06952404 -0.05748586  0.10679545       0.003
  -0.03476202 -0.08622850  0.10679559       0.003
  -0.00000000 -0.11497114  0.10679572       0.003
   0.03476202 -0.14371378  0.10679586       0.003
   0.06952404 -0.17245643  0.10679599       0.003
  -0.17381009  0.02874207  0.10679505       0.003
  -0.13904807 -0.00000057  0.10679518       0.003
  -0.10428605 -0.02874322  0.10679532       0.003
  -0.03476202 -0.02874322  0.10679532       0.003
  -0.00000000 -0.05748586  0.10679545       0.003
   0.03476202 -0.08622850  0.10679559       0.003
   0.06952404 -0.11497114  0.10679572       0.003
   0.10428605 -0.14371378  0.10679586       0.003
  -0.13904807  0.05748471  0.10679491       0.003
  -0.10428605  0.02874207  0.10679505       0.003
  -0.06952404 -0.00000057  0.10679518       0.003
   0.00000000  0.00000038 -0.07119679       0.003
   0.03476202 -0.02874226 -0.07119665       0.003
   0.06952404 -0.05748490 -0.07119652       0.003
   0.10428605 -0.08622755 -0.07119638       0.003
   0.13904807 -0.11497019 -0.07119625       0.003
  -0.10428605  0.08622831 -0.07119719       0.003
  -0.06952404  0.05748567 -0.07119706       0.003
  -0.03476202  0.02874302 -0.07119692       0.003
   0.03476202  0.02874302 -0.07119692       0.003
   0.06952404  0.00000038 -0.07119679       0.003
   0.10428605 -0.02874226 -0.07119665       0.003
   0.13904807 -0.05748490 -0.07119652       0.003
   0.17381009 -0.08622755 -0.07119638       0.003
  -0.06952404  0.11497095 -0.07119733       0.003
  -0.03476202  0.08622831 -0.07119719       0.003
   0.00000000  0.05748567 -0.07119706       0.003
   0.06952404  0.05748567 -0.07119706       0.003
   0.10428605  0.02874302 -0.07119692       0.003
   0.13904807  0.00000038 -0.07119679       0.003
   0.17381009 -0.02874226 -0.07119665       0.003
   0.20857211 -0.05748490 -0.07119652       0.003
  -0.03476202  0.14371359 -0.07119746       0.003
   0.00000000  0.11497095 -0.07119733       0.003
   0.03476202  0.08622831 -0.07119719       0.003
   0.10428605  0.08622831 -0.07119719       0.003
   0.13904807  0.05748567 -0.07119706       0.003
   0.17381009  0.02874302 -0.07119692       0.003
   0.20857211  0.00000038 -0.07119679       0.003
   0.24333412 -0.02874226 -0.07119665       0.003
   0.00000000  0.17245624 -0.07119760       0.003
   0.03476202  0.14371359 -0.07119746       0.003
   0.06952404  0.11497095 -0.07119733       0.003
   0.13904807  0.11497095 -0.07119733       0.003
   0.17381009  0.08622831 -0.07119719       0.003
   0.20857211  0.05748567 -0.07119706       0.003
   0.24333412  0.02874302 -0.07119692       0.003
   0.27809614  0.00000038 -0.07119679       0.003
   0.03476202  0.20119888 -0.07119773       0.003
   0.06952404  0.17245624 -0.07119760       0.003
   0.10428605  0.14371359 -0.07119746       0.003
  -0.10428605 -0.08622755 -0.07119638       0.003
  -0.06952404 -0.11497019 -0.07119625       0.003
  -0.03476202 -0.14371283 -0.07119611       0.003
   0.00000000 -0.17245547 -0.07119598       0.003
   0.03476202 -0.20119811 -0.07119584       0.003
  -0.20857211  0.00000038 -0.07119679       0.003
  -0.17381009 -0.02874226 -0.07119665       0.003
  -0.13904807 -0.05748490 -0.07119652       0.003
  -0.06952404 -0.05748490 -0.07119652       0.003
  -0.03476202 -0.08622755 -0.07119638       0.003
   0.00000000 -0.11497019 -0.07119625       0.003
   0.03476202 -0.14371283 -0.07119611       0.003
   0.06952404 -0.17245547 -0.07119598       0.003
  -0.17381009  0.02874302 -0.07119692       0.003
  -0.13904807  0.00000038 -0.07119679       0.003
  -0.10428605 -0.02874226 -0.07119665       0.003
  -0.03476202 -0.02874226 -0.07119665       0.003
   0.00000000 -0.05748490 -0.07119652       0.003
   0.03476202 -0.08622755 -0.07119638       0.003
   0.06952404 -0.11497019 -0.07119625       0.003
   0.10428605 -0.14371283 -0.07119611       0.003
  -0.13904807  0.05748567 -0.07119706       0.003
  -0.10428605  0.02874302 -0.07119692       0.003
  -0.06952404  0.00000038 -0.07119679       0.003
   0.00000000  0.00000019 -0.03559839       0.003
   0.03476202 -0.02874245 -0.03559826       0.003
   0.06952404 -0.05748509 -0.03559812       0.003
   0.10428605 -0.08622774 -0.03559799       0.003
   0.13904807 -0.11497038 -0.03559785       0.003
  -0.10428605  0.08622812 -0.03559880       0.003
  -0.06952404  0.05748548 -0.03559866       0.003
  -0.03476202  0.02874283 -0.03559853       0.003
   0.03476202  0.02874283 -0.03559853       0.003
   0.06952404  0.00000019 -0.03559839       0.003
   0.10428605 -0.02874245 -0.03559826       0.003
   0.13904807 -0.05748509 -0.03559812       0.003
   0.17381009 -0.08622774 -0.03559799       0.003
  -0.06952404  0.11497076 -0.03559893       0.003
  -0.03476202  0.08622812 -0.03559880       0.003
   0.00000000  0.05748548 -0.03559866       0.003
   0.06952404  0.05748548 -0.03559866       0.003
   0.10428605  0.02874283 -0.03559853       0.003
   0.13904807  0.00000019 -0.03559839       0.003
   0.17381009 -0.02874245 -0.03559826       0.003
   0.20857211 -0.05748509 -0.03559812       0.003
  -0.03476202  0.14371340 -0.03559907       0.003
   0.00000000  0.11497076 -0.03559893       0.003
   0.03476202  0.08622812 -0.03559880       0.003
   0.10428605  0.08622812 -0.03559880       0.003
   0.13904807  0.05748548 -0.03559866       0.003
   0.17381009  0.02874283 -0.03559853       0.003
   0.20857211  0.00000019 -0.03559839       0.003
   0.24333412 -0.02874245 -0.03559826       0.003
   0.00000000  0.17245605 -0.03559920       0.003
   0.03476202  0.14371340 -0.03559907       0.003
   0.06952404  0.11497076 -0.03559893       0.003
   0.13904807  0.11497076 -0.03559893       0.003
   0.17381009  0.08622812 -0.03559880       0.003
   0.20857211  0.05748548 -0.03559866       0.003
   0.24333412  0.02874283 -0.03559853       0.003
   0.27809614  0.00000019 -0.03559840       0.003
   0.03476202  0.20119869 -0.03559934       0.003
   0.06952404  0.17245605 -0.03559920       0.003
   0.10428605  0.14371340 -0.03559907       0.003
  -0.10428605 -0.08622774 -0.03559799       0.003
  -0.06952404 -0.11497038 -0.03559785       0.003
  -0.03476202 -0.14371302 -0.03559772       0.003
   0.00000000 -0.17245566 -0.03559758       0.003
   0.03476202 -0.20119831 -0.03559745       0.003
  -0.20857211  0.00000019 -0.03559839       0.003
  -0.17381009 -0.02874245 -0.03559826       0.003
  -0.13904807 -0.05748509 -0.03559812       0.003
  -0.06952404 -0.05748509 -0.03559812       0.003
  -0.03476202 -0.08622774 -0.03559799       0.003
   0.00000000 -0.11497038 -0.03559785       0.003
   0.03476202 -0.14371302 -0.03559772       0.003
   0.06952404 -0.17245566 -0.03559758       0.003
  -0.17381009  0.02874283 -0.03559853       0.003
  -0.13904807  0.00000019 -0.03559839       0.003
  -0.10428605 -0.02874245 -0.03559826       0.003
  -0.03476202 -0.02874245 -0.03559826       0.003
   0.00000000 -0.05748509 -0.03559812       0.003
   0.03476202 -0.08622774 -0.03559799       0.003
   0.06952404 -0.11497038 -0.03559785       0.003
   0.10428605 -0.14371302 -0.03559772       0.003
  -0.13904807  0.05748548 -0.03559866       0.003
  -0.10428605  0.02874283 -0.03559853       0.003
  -0.06952404  0.00000019 -0.03559839       0.003
 
 k-points in reciprocal lattice and weights: KPOINTS created by Atomic Simulation Env
   0.00000000  0.00000000  0.00000000       0.003
   0.12500000 -0.00000000  0.00000000       0.003
   0.25000000 -0.00000000  0.00000000       0.003
   0.37500000 -0.00000000 -0.00000000       0.003
   0.50000000 -0.00000000 -0.00000000       0.003
  -0.37500000  0.00000000  0.00000000       0.003
  -0.25000000  0.00000000 -0.00000000       0.003
  -0.12500000  0.00000000  0.00000000       0.003
   0.00000000  0.12500000  0.00000000       0.003
   0.12500000  0.12500000  0.00000000       0.003
   0.25000000  0.12500000 -0.00000000       0.003
   0.37500000  0.12500000 -0.00000000       0.003
   0.50000000  0.12500000 -0.00000000       0.003
  -0.37500000  0.12500000 -0.00000000       0.003
  -0.25000000  0.12500000  0.00000000       0.003
  -0.12500000  0.12500000  0.00000000       0.003
   0.00000000  0.25000000  0.00000000       0.003
   0.12500000  0.25000000 -0.00000000       0.003
   0.25000000  0.25000000 -0.00000000       0.003
   0.37500000  0.25000000 -0.00000000       0.003
   0.50000000  0.25000000  0.00000000       0.003
  -0.37500000  0.25000000  0.00000000       0.003
  -0.25000000  0.25000000  0.00000000       0.003
  -0.12500000  0.25000000 -0.00000000       0.003
  -0.00000000  0.37500000 -0.00000000       0.003
   0.12500000  0.37500000 -0.00000000       0.003
   0.25000000  0.37500000 -0.00000000       0.003
   0.37500000  0.37500000  0.00000000       0.003
   0.50000000  0.37500000  0.00000000       0.003
  -0.37500000  0.37500000  0.00000000       0.003
  -0.25000000  0.37500000 -0.00000000       0.003
  -0.12500000  0.37500000  0.00000000       0.003
   0.00000000  0.50000000 -0.00000000       0.003
   0.12500000  0.50000000 -0.00000000       0.003
   0.25000000  0.50000000  0.00000000       0.003
   0.37500000  0.50000000  0.00000000       0.003
   0.50000000  0.50000000  0.00000000       0.003
  -0.37500000  0.50000000 -0.00000000       0.003
  -0.25000000  0.50000000  0.00000000       0.003
  -0.12500000  0.50000000 -0.00000000       0.003
   0.00000000 -0.37500000  0.00000000       0.003
   0.12500000 -0.37500000 -0.00000000       0.003
   0.25000000 -0.37500000  0.00000000       0.003
   0.37500000 -0.37500000  0.00000000       0.003
   0.50000000 -0.37500000 -0.00000000       0.003
  -0.37500000 -0.37500000 -0.00000000       0.003
  -0.25000000 -0.37500000  0.00000000       0.003
  -0.12500000 -0.37500000  0.00000000       0.003
  -0.00000000 -0.25000000 -0.00000000       0.003
   0.12500000 -0.25000000  0.00000000       0.003
   0.25000000 -0.25000000  0.00000000       0.003
   0.37500000 -0.25000000 -0.00000000       0.003
   0.50000000 -0.25000000  0.00000000       0.003
  -0.37500000 -0.25000000  0.00000000       0.003
  -0.25000000 -0.25000000  0.00000000       0.003
  -0.12500000 -0.25000000  0.00000000       0.003
  -0.00000000 -0.12500000  0.00000000       0.003
   0.12500000 -0.12500000  0.00000000       0.003
   0.25000000 -0.12500000 -0.00000000       0.003
   0.37500000 -0.12500000  0.00000000       0.003
   0.50000000 -0.12500000 -0.00000000       0.003
  -0.37500000 -0.12500000  0.00000000       0.003
  -0.25000000 -0.12500000  0.00000000       0.003
  -0.12500000 -0.12500000  0.00000000       0.003
  -0.00000000  0.00000000  0.16666667       0.003
   0.12500000  0.00000000  0.16666667       0.003
   0.25000000  0.00000000  0.16666667       0.003
   0.37500000  0.00000000  0.16666667       0.003
   0.50000000  0.00000000  0.16666667       0.003
  -0.37500000 -0.00000000  0.16666667       0.003
  -0.25000000  0.00000000  0.16666667       0.003
  -0.12500000 -0.00000000  0.16666667       0.003
   0.00000000  0.12500000  0.16666667       0.003
   0.12500000  0.12500000  0.16666667       0.003
   0.25000000  0.12500000  0.16666667       0.003
   0.37500000  0.12500000  0.16666667       0.003
   0.50000000  0.12500000  0.16666667       0.003
  -0.37500000  0.12500000  0.16666667       0.003
  -0.25000000  0.12500000  0.16666667       0.003
  -0.12500000  0.12500000  0.16666667       0.003
   0.00000000  0.25000000  0.16666667       0.003
   0.12500000  0.25000000  0.16666667       0.003
   0.25000000  0.25000000  0.16666667       0.003
   0.37500000  0.25000000  0.16666667       0.003
   0.50000000  0.25000000  0.16666667       0.003
  -0.37500000  0.25000000  0.16666667       0.003
  -0.25000000  0.25000000  0.16666667       0.003
  -0.12500000  0.25000000  0.16666667       0.003
   0.00000000  0.37500000  0.16666667       0.003
   0.12500000  0.37500000  0.16666667       0.003
   0.25000000  0.37500000  0.16666667       0.003
   0.37500000  0.37500000  0.16666667       0.003
   0.50000000  0.37500000  0.16666667       0.003
  -0.37500000  0.37500000  0.16666667       0.003
  -0.25000000  0.37500000  0.16666667       0.003
  -0.12500000  0.37500000  0.16666667       0.003
   0.00000000  0.50000000  0.16666667       0.003
   0.12500000  0.50000000  0.16666667       0.003
   0.25000000  0.50000000  0.16666667       0.003
   0.37500000  0.50000000  0.16666667       0.003
   0.50000000  0.50000000  0.16666667       0.003
  -0.37500000  0.50000000  0.16666667       0.003
  -0.25000000  0.50000000  0.16666667       0.003
  -0.12500000  0.50000000  0.16666667       0.003
  -0.00000000 -0.37500000  0.16666667       0.003
   0.12500000 -0.37500000  0.16666667       0.003
   0.25000000 -0.37500000  0.16666667       0.003
   0.37500000 -0.37500000  0.16666667       0.003
   0.50000000 -0.37500000  0.16666667       0.003
  -0.37500000 -0.37500000  0.16666667       0.003
  -0.25000000 -0.37500000  0.16666667       0.003
  -0.12500000 -0.37500000  0.16666667       0.003
  -0.00000000 -0.25000000  0.16666667       0.003
   0.12500000 -0.25000000  0.16666667       0.003
   0.25000000 -0.25000000  0.16666667       0.003
   0.37500000 -0.25000000  0.16666667       0.003
   0.50000000 -0.25000000  0.16666667       0.003
  -0.37500000 -0.25000000  0.16666667       0.003
  -0.25000000 -0.25000000  0.16666667       0.003
  -0.12500000 -0.25000000  0.16666667       0.003
  -0.00000000 -0.12500000  0.16666667       0.003
   0.12500000 -0.12500000  0.16666667       0.003
   0.25000000 -0.12500000  0.16666667       0.003
   0.37500000 -0.12500000  0.16666667       0.003
   0.50000000 -0.12500000  0.16666667       0.003
  -0.37500000 -0.12500000  0.16666667       0.003
  -0.25000000 -0.12500000  0.16666667       0.003
  -0.12500000 -0.12500000  0.16666667       0.003
  -0.00000000  0.00000000  0.33333333       0.003
   0.12500000 -0.00000000  0.33333333       0.003
   0.25000000  0.00000000  0.33333333       0.003
   0.37500000 -0.00000000  0.33333333       0.003
   0.50000000  0.00000000  0.33333333       0.003
  -0.37500000  0.00000000  0.33333333       0.003
  -0.25000000 -0.00000000  0.33333333       0.003
  -0.12500000  0.00000000  0.33333333       0.003
   0.00000000  0.12500000  0.33333333       0.003
   0.12500000  0.12500000  0.33333333       0.003
   0.25000000  0.12500000  0.33333333       0.003
   0.37500000  0.12500000  0.33333333       0.003
   0.50000000  0.12500000  0.33333333       0.003
  -0.37500000  0.12500000  0.33333333       0.003
  -0.25000000  0.12500000  0.33333333       0.003
  -0.12500000  0.12500000  0.33333333       0.003
   0.00000000  0.25000000  0.33333333       0.003
   0.12500000  0.25000000  0.33333333       0.003
   0.25000000  0.25000000  0.33333333       0.003
   0.37500000  0.25000000  0.33333333       0.003
   0.50000000  0.25000000  0.33333333       0.003
  -0.37500000  0.25000000  0.33333333       0.003
  -0.25000000  0.25000000  0.33333333       0.003
  -0.12500000  0.25000000  0.33333333       0.003
  -0.00000000  0.37500000  0.33333333       0.003
   0.12500000  0.37500000  0.33333333       0.003
   0.25000000  0.37500000  0.33333333       0.003
   0.37500000  0.37500000  0.33333333       0.003
   0.50000000  0.37500000  0.33333333       0.003
  -0.37500000  0.37500000  0.33333333       0.003
  -0.25000000  0.37500000  0.33333333       0.003
  -0.12500000  0.37500000  0.33333333       0.003
   0.00000000  0.50000000  0.33333333       0.003
   0.12500000  0.50000000  0.33333333       0.003
   0.25000000  0.50000000  0.33333333       0.003
   0.37500000  0.50000000  0.33333333       0.003
   0.50000000  0.50000000  0.33333333       0.003
  -0.37500000  0.50000000  0.33333333       0.003
  -0.25000000  0.50000000  0.33333333       0.003
  -0.12500000  0.50000000  0.33333333       0.003
  -0.00000000 -0.37500000  0.33333333       0.003
   0.12500000 -0.37500000  0.33333333       0.003
   0.25000000 -0.37500000  0.33333333       0.003
   0.37500000 -0.37500000  0.33333333       0.003
   0.50000000 -0.37500000  0.33333333       0.003
  -0.37500000 -0.37500000  0.33333333       0.003
  -0.25000000 -0.37500000  0.33333333       0.003
  -0.12500000 -0.37500000  0.33333333       0.003
  -0.00000000 -0.25000000  0.33333333       0.003
   0.12500000 -0.25000000  0.33333333       0.003
   0.25000000 -0.25000000  0.33333333       0.003
   0.37500000 -0.25000000  0.33333333       0.003
   0.50000000 -0.25000000  0.33333333       0.003
  -0.37500000 -0.25000000  0.33333333       0.003
  -0.25000000 -0.25000000  0.33333333       0.003
  -0.12500000 -0.25000000  0.33333333       0.003
  -0.00000000 -0.12500000  0.33333333       0.003
   0.12500000 -0.12500000  0.33333333       0.003
   0.25000000 -0.12500000  0.33333333       0.003
   0.37500000 -0.12500000  0.33333333       0.003
   0.50000000 -0.12500000  0.33333333       0.003
  -0.37500000 -0.12500000  0.33333333       0.003
  -0.25000000 -0.12500000  0.33333333       0.003
  -0.12500000 -0.12500000  0.33333333       0.003
  -0.00000000  0.00000000  0.50000000       0.003
   0.12500000  0.00000000  0.50000000       0.003
   0.25000000 -0.00000000  0.50000000       0.003
   0.37500000  0.00000000  0.50000000       0.003
   0.50000000 -0.00000000  0.50000000       0.003
  -0.37500000  0.00000000  0.50000000       0.003
  -0.25000000 -0.00000000  0.50000000       0.003
  -0.12500000  0.00000000  0.50000000       0.003
   0.00000000  0.12500000  0.50000000       0.003
   0.12500000  0.12500000  0.50000000       0.003
   0.25000000  0.12500000  0.50000000       0.003
   0.37500000  0.12500000  0.50000000       0.003
   0.50000000  0.12500000  0.50000000       0.003
  -0.37500000  0.12500000  0.50000000       0.003
  -0.25000000  0.12500000  0.50000000       0.003
  -0.12500000  0.12500000  0.50000000       0.003
   0.00000000  0.25000000  0.50000000       0.003
   0.12500000  0.25000000  0.50000000       0.003
   0.25000000  0.25000000  0.50000000       0.003
   0.37500000  0.25000000  0.50000000       0.003
   0.50000000  0.25000000  0.50000000       0.003
  -0.37500000  0.25000000  0.50000000       0.003
  -0.25000000  0.25000000  0.50000000       0.003
  -0.12500000  0.25000000  0.50000000       0.003
  -0.00000000  0.37500000  0.50000000       0.003
   0.12500000  0.37500000  0.50000000       0.003
   0.25000000  0.37500000  0.50000000       0.003
   0.37500000  0.37500000  0.50000000       0.003
   0.50000000  0.37500000  0.50000000       0.003
  -0.37500000  0.37500000  0.50000000       0.003
  -0.25000000  0.37500000  0.50000000       0.003
  -0.12500000  0.37500000  0.50000000       0.003
   0.00000000  0.50000000  0.50000000       0.003
   0.12500000  0.50000000  0.50000000       0.003
   0.25000000  0.50000000  0.50000000       0.003
   0.37500000  0.50000000  0.50000000       0.003
   0.50000000  0.50000000  0.50000000       0.003
  -0.37500000  0.50000000  0.50000000       0.003
  -0.25000000  0.50000000  0.50000000       0.003
  -0.12500000  0.50000000  0.50000000       0.003
  -0.00000000 -0.37500000  0.50000000       0.003
   0.12500000 -0.37500000  0.50000000       0.003
   0.25000000 -0.37500000  0.50000000       0.003
   0.37500000 -0.37500000  0.50000000       0.003
   0.50000000 -0.37500000  0.50000000       0.003
  -0.37500000 -0.37500000  0.50000000       0.003
  -0.25000000 -0.37500000  0.50000000       0.003
  -0.12500000 -0.37500000  0.50000000       0.003
  -0.00000000 -0.25000000  0.50000000       0.003
   0.12500000 -0.25000000  0.50000000       0.003
   0.25000000 -0.25000000  0.50000000       0.003
   0.37500000 -0.25000000  0.50000000       0.003
   0.50000000 -0.25000000  0.50000000       0.003
  -0.37500000 -0.25000000  0.50000000       0.003
  -0.25000000 -0.25000000  0.50000000       0.003
  -0.12500000 -0.25000000  0.50000000       0.003
  -0.00000000 -0.12500000  0.50000000       0.003
   0.12500000 -0.12500000  0.50000000       0.003
   0.25000000 -0.12500000  0.50000000       0.003
   0.37500000 -0.12500000  0.50000000       0.003
   0.50000000 -0.12500000  0.50000000       0.003
  -0.37500000 -0.12500000  0.50000000       0.003
  -0.25000000 -0.12500000  0.50000000       0.003
  -0.12500000 -0.12500000  0.50000000       0.003
   0.00000000 -0.00000000 -0.33333333       0.003
   0.12500000 -0.00000000 -0.33333333       0.003
   0.25000000  0.00000000 -0.33333333       0.003
   0.37500000 -0.00000000 -0.33333333       0.003
   0.50000000 -0.00000000 -0.33333333       0.003
  -0.37500000  0.00000000 -0.33333333       0.003
  -0.25000000 -0.00000000 -0.33333333       0.003
  -0.12500000  0.00000000 -0.33333333       0.003
   0.00000000  0.12500000 -0.33333333       0.003
   0.12500000  0.12500000 -0.33333333       0.003
   0.25000000  0.12500000 -0.33333333       0.003
   0.37500000  0.12500000 -0.33333333       0.003
   0.50000000  0.12500000 -0.33333333       0.003
  -0.37500000  0.12500000 -0.33333333       0.003
  -0.25000000  0.12500000 -0.33333333       0.003
  -0.12500000  0.12500000 -0.33333333       0.003
   0.00000000  0.25000000 -0.33333333       0.003
   0.12500000  0.25000000 -0.33333333       0.003
   0.25000000  0.25000000 -0.33333333       0.003
   0.37500000  0.25000000 -0.33333333       0.003
   0.50000000  0.25000000 -0.33333333       0.003
  -0.37500000  0.25000000 -0.33333333       0.003
  -0.25000000  0.25000000 -0.33333333       0.003
  -0.12500000  0.25000000 -0.33333333       0.003
   0.00000000  0.37500000 -0.33333333       0.003
   0.12500000  0.37500000 -0.33333333       0.003
   0.25000000  0.37500000 -0.33333333       0.003
   0.37500000  0.37500000 -0.33333333       0.003
   0.50000000  0.37500000 -0.33333333       0.003
  -0.37500000  0.37500000 -0.33333333       0.003
  -0.25000000  0.37500000 -0.33333333       0.003
  -0.12500000  0.37500000 -0.33333333       0.003
   0.00000000  0.50000000 -0.33333333       0.003
   0.12500000  0.50000000 -0.33333333       0.003
   0.25000000  0.50000000 -0.33333333       0.003
   0.37500000  0.50000000 -0.33333333       0.003
   0.50000000  0.50000000 -0.33333333       0.003
  -0.37500000  0.50000000 -0.33333333       0.003
  -0.25000000  0.50000000 -0.33333333       0.003
  -0.12500000  0.50000000 -0.33333333       0.003
   0.00000000 -0.37500000 -0.33333333       0.003
   0.12500000 -0.37500000 -0.33333333       0.003
   0.25000000 -0.37500000 -0.33333333       0.003
   0.37500000 -0.37500000 -0.33333333       0.003
   0.50000000 -0.37500000 -0.33333333       0.003
  -0.37500000 -0.37500000 -0.33333333       0.003
  -0.25000000 -0.37500000 -0.33333333       0.003
  -0.12500000 -0.37500000 -0.33333333       0.003
  -0.00000000 -0.25000000 -0.33333333       0.003
   0.12500000 -0.25000000 -0.33333333       0.003
   0.25000000 -0.25000000 -0.33333333       0.003
   0.37500000 -0.25000000 -0.33333333       0.003
   0.50000000 -0.25000000 -0.33333333       0.003
  -0.37500000 -0.25000000 -0.33333333       0.003
  -0.25000000 -0.25000000 -0.33333333       0.003
  -0.12500000 -0.25000000 -0.33333333       0.003
  -0.00000000 -0.12500000 -0.33333333       0.003
   0.12500000 -0.12500000 -0.33333333       0.003
   0.25000000 -0.12500000 -0.33333333       0.003
   0.37500000 -0.12500000 -0.33333333       0.003
   0.50000000 -0.12500000 -0.33333333       0.003
  -0.37500000 -0.12500000 -0.33333333       0.003
  -0.25000000 -0.12500000 -0.33333333       0.003
  -0.12500000 -0.12500000 -0.33333333       0.003
   0.00000000 -0.00000000 -0.16666667       0.003
   0.12500000  0.00000000 -0.16666667       0.003
   0.25000000 -0.00000000 -0.16666667       0.003
   0.37500000  0.00000000 -0.16666667       0.003
   0.50000000  0.00000000 -0.16666667       0.003
  -0.37500000 -0.00000000 -0.16666667       0.003
  -0.25000000 -0.00000000 -0.16666667       0.003
  -0.12500000 -0.00000000 -0.16666667       0.003
   0.00000000  0.12500000 -0.16666667       0.003
   0.12500000  0.12500000 -0.16666667       0.003
   0.25000000  0.12500000 -0.16666667       0.003
   0.37500000  0.12500000 -0.16666667       0.003
   0.50000000  0.12500000 -0.16666667       0.003
  -0.37500000  0.12500000 -0.16666667       0.003
  -0.25000000  0.12500000 -0.16666667       0.003
  -0.12500000  0.12500000 -0.16666667       0.003
   0.00000000  0.25000000 -0.16666667       0.003
   0.12500000  0.25000000 -0.16666667       0.003
   0.25000000  0.25000000 -0.16666667       0.003
   0.37500000  0.25000000 -0.16666667       0.003
   0.50000000  0.25000000 -0.16666667       0.003
  -0.37500000  0.25000000 -0.16666667       0.003
  -0.25000000  0.25000000 -0.16666667       0.003
  -0.12500000  0.25000000 -0.16666667       0.003
   0.00000000  0.37500000 -0.16666667       0.003
   0.12500000  0.37500000 -0.16666667       0.003
   0.25000000  0.37500000 -0.16666667       0.003
   0.37500000  0.37500000 -0.16666667       0.003
   0.50000000  0.37500000 -0.16666667       0.003
  -0.37500000  0.37500000 -0.16666667       0.003
  -0.25000000  0.37500000 -0.16666667       0.003
  -0.12500000  0.37500000 -0.16666667       0.003
   0.00000000  0.50000000 -0.16666667       0.003
   0.12500000  0.50000000 -0.16666667       0.003
   0.25000000  0.50000000 -0.16666667       0.003
   0.37500000  0.50000000 -0.16666667       0.003
   0.50000000  0.50000000 -0.16666667       0.003
  -0.37500000  0.50000000 -0.16666667       0.003
  -0.25000000  0.50000000 -0.16666667       0.003
  -0.12500000  0.50000000 -0.16666667       0.003
  -0.00000000 -0.37500000 -0.16666667       0.003
   0.12500000 -0.37500000 -0.16666667       0.003
   0.25000000 -0.37500000 -0.16666667       0.003
   0.37500000 -0.37500000 -0.16666667       0.003
   0.50000000 -0.37500000 -0.16666667       0.003
  -0.37500000 -0.37500000 -0.16666667       0.003
  -0.25000000 -0.37500000 -0.16666667       0.003
  -0.12500000 -0.37500000 -0.16666667       0.003
  -0.00000000 -0.25000000 -0.16666667       0.003
   0.12500000 -0.25000000 -0.16666667       0.003
   0.25000000 -0.25000000 -0.16666667       0.003
   0.37500000 -0.25000000 -0.16666667       0.003
   0.50000000 -0.25000000 -0.16666667       0.003
  -0.37500000 -0.25000000 -0.16666667       0.003
  -0.25000000 -0.25000000 -0.16666667       0.003
  -0.12500000 -0.25000000 -0.16666667       0.003
  -0.00000000 -0.12500000 -0.16666667       0.003
   0.12500000 -0.12500000 -0.16666667       0.003
   0.25000000 -0.12500000 -0.16666667       0.003
   0.37500000 -0.12500000 -0.16666667       0.003
   0.50000000 -0.12500000 -0.16666667       0.003
  -0.37500000 -0.12500000 -0.16666667       0.003
  -0.25000000 -0.12500000 -0.16666667       0.003
  -0.12500000 -0.12500000 -0.16666667       0.003
 
 position of ions in fractional coordinates (direct lattice) 
   0.65451176  0.34548859  0.52189166
   0.25347579  0.74652456  0.02189370
   0.68625256  0.31374779  0.92140488
   0.22172524  0.77827511  0.42140447
 
 position of ions in cartesian coordinates  (Angst):
   1.79794000 -0.67195000  2.44341961
   1.79794000  1.07212000  0.10250895
   1.79794000 -0.80998000  4.31388347
   1.79794000  1.21021000  1.97296283
 


--------------------------------------------------------------------------------------------------------


 k-point   1 :   0.0000 0.0000 0.0000  plane waves:    1221
 k-point   2 :   0.1250-0.0000 0.0000  plane waves:    1226
 k-point   3 :   0.2500-0.0000 0.0000  plane waves:    1223
 k-point   4 :   0.3750-0.0000-0.0000  plane waves:    1224
 k-point   5 :   0.5000-0.0000-0.0000  plane waves:    1228
 k-point   6 :  -0.3750 0.0000 0.0000  plane waves:    1224
 k-point   7 :  -0.2500 0.0000-0.0000  plane waves:    1223
 k-point   8 :  -0.1250 0.0000 0.0000  plane waves:    1226
 k-point   9 :   0.0000 0.1250 0.0000  plane waves:    1226
 k-point  10 :   0.1250 0.1250 0.0000  plane waves:    1231
 k-point  11 :   0.2500 0.1250-0.0000  plane waves:    1236
 k-point  12 :   0.3750 0.1250-0.0000  plane waves:    1221
 k-point  13 :   0.5000 0.1250-0.0000  plane waves:    1230
 k-point  14 :  -0.3750 0.1250-0.0000  plane waves:    1220
 k-point  15 :  -0.2500 0.1250 0.0000  plane waves:    1213
 k-point  16 :  -0.1250 0.1250 0.0000  plane waves:    1223
 k-point  17 :   0.0000 0.2500 0.0000  plane waves:    1223
 k-point  18 :   0.1250 0.2500-0.0000  plane waves:    1236
 k-point  19 :   0.2500 0.2500-0.0000  plane waves:    1225
 k-point  20 :   0.3750 0.2500-0.0000  plane waves:    1215
 k-point  21 :   0.5000 0.2500 0.0000  plane waves:    1219
 k-point  22 :  -0.3750 0.2500 0.0000  plane waves:    1223
 k-point  23 :  -0.2500 0.2500 0.0000  plane waves:    1225
 k-point  24 :  -0.1250 0.2500-0.0000  plane waves:    1213
 k-point  25 :  -0.0000 0.3750-0.0000  plane waves:    1224
 k-point  26 :   0.1250 0.3750-0.0000  plane waves:    1221
 k-point  27 :   0.2500 0.3750-0.0000  plane waves:    1215
 k-point  28 :   0.3750 0.3750 0.0000  plane waves:    1227
 k-point  29 :   0.5000 0.3750 0.0000  plane waves:    1218
 k-point  30 :  -0.3750 0.3750 0.0000  plane waves:    1210
 k-point  31 :  -0.2500 0.3750-0.0000  plane waves:    1223
 k-point  32 :  -0.1250 0.3750 0.0000  plane waves:    1220
 k-point  33 :   0.0000 0.5000-0.0000  plane waves:    1228
 k-point  34 :   0.1250 0.5000-0.0000  plane waves:    1230
 k-point  35 :   0.2500 0.5000 0.0000  plane waves:    1219
 k-point  36 :   0.3750 0.5000 0.0000  plane waves:    1218
 k-point  37 :   0.5000 0.5000 0.0000  plane waves:    1216
 k-point  38 :  -0.3750 0.5000-0.0000  plane waves:    1218
 k-point  39 :  -0.2500 0.5000 0.0000  plane waves:    1219
 k-point  40 :  -0.1250 0.5000-0.0000  plane waves:    1230
 k-point  41 :   0.0000-0.3750 0.0000  plane waves:    1224
 k-point  42 :   0.1250-0.3750-0.0000  plane waves:    1220
 k-point  43 :   0.2500-0.3750 0.0000  plane waves:    1223
 k-point  44 :   0.3750-0.3750 0.0000  plane waves:    1210
 k-point  45 :   0.5000-0.3750-0.0000  plane waves:    1218
 k-point  46 :  -0.3750-0.3750-0.0000  plane waves:    1227
 k-point  47 :  -0.2500-0.3750 0.0000  plane waves:    1215
 k-point  48 :  -0.1250-0.3750 0.0000  plane waves:    1221
 k-point  49 :  -0.0000-0.2500-0.0000  plane waves:    1223
 k-point  50 :   0.1250-0.2500 0.0000  plane waves:    1213
 k-point  51 :   0.2500-0.2500 0.0000  plane waves:    1225
 k-point  52 :   0.3750-0.2500-0.0000  plane waves:    1223
 k-point  53 :   0.5000-0.2500 0.0000  plane waves:    1219
 k-point  54 :  -0.3750-0.2500 0.0000  plane waves:    1215
 k-point  55 :  -0.2500-0.2500 0.0000  plane waves:    1225
 k-point  56 :  -0.1250-0.2500 0.0000  plane waves:    1236
 k-point  57 :  -0.0000-0.1250 0.0000  plane waves:    1226
 k-point  58 :   0.1250-0.1250 0.0000  plane waves:    1223
 k-point  59 :   0.2500-0.1250-0.0000  plane waves:    1213
 k-point  60 :   0.3750-0.1250 0.0000  plane waves:    1220
 k-point  61 :   0.5000-0.1250-0.0000  plane waves:    1230
 k-point  62 :  -0.3750-0.1250 0.0000  plane waves:    1221
 k-point  63 :  -0.2500-0.1250 0.0000  plane waves:    1236
 k-point  64 :  -0.1250-0.1250 0.0000  plane waves:    1231
 k-point  65 :  -0.0000 0.0000 0.1667  plane waves:    1231
 k-point  66 :   0.1250 0.0000 0.1667  plane waves:    1226
 k-point  67 :   0.2500 0.0000 0.1667  plane waves:    1222
 k-point  68 :   0.3750 0.0000 0.1667  plane waves:    1223
 k-point  69 :   0.5000 0.0000 0.1667  plane waves:    1230
 k-point  70 :  -0.3750-0.0000 0.1667  plane waves:    1223
 k-point  71 :  -0.2500 0.0000 0.1667  plane waves:    1222
 k-point  72 :  -0.1250-0.0000 0.1667  plane waves:    1226
 k-point  73 :   0.0000 0.1250 0.1667  plane waves:    1226
 k-point  74 :   0.1250 0.1250 0.1667  plane waves:    1226
 k-point  75 :   0.2500 0.1250 0.1667  plane waves:    1222
 k-point  76 :   0.3750 0.1250 0.1667  plane waves:    1220
 k-point  77 :   0.5000 0.1250 0.1667  plane waves:    1227
 k-point  78 :  -0.3750 0.1250 0.1667  plane waves:    1216
 k-point  79 :  -0.2500 0.1250 0.1667  plane waves:    1216
 k-point  80 :  -0.1250 0.1250 0.1667  plane waves:    1224
 k-point  81 :   0.0000 0.2500 0.1667  plane waves:    1222
 k-point  82 :   0.1250 0.2500 0.1667  plane waves:    1222
 k-point  83 :   0.2500 0.2500 0.1667  plane waves:    1225
 k-point  84 :   0.3750 0.2500 0.1667  plane waves:    1221
 k-point  85 :   0.5000 0.2500 0.1667  plane waves:    1223
 k-point  86 :  -0.3750 0.2500 0.1667  plane waves:    1226
 k-point  87 :  -0.2500 0.2500 0.1667  plane waves:    1218
 k-point  88 :  -0.1250 0.2500 0.1667  plane waves:    1216
 k-point  89 :   0.0000 0.3750 0.1667  plane waves:    1223
 k-point  90 :   0.1250 0.3750 0.1667  plane waves:    1220
 k-point  91 :   0.2500 0.3750 0.1667  plane waves:    1221
 k-point  92 :   0.3750 0.3750 0.1667  plane waves:    1216
 k-point  93 :   0.5000 0.3750 0.1667  plane waves:    1215
 k-point  94 :  -0.3750 0.3750 0.1667  plane waves:    1217
 k-point  95 :  -0.2500 0.3750 0.1667  plane waves:    1226
 k-point  96 :  -0.1250 0.3750 0.1667  plane waves:    1216
 k-point  97 :   0.0000 0.5000 0.1667  plane waves:    1230
 k-point  98 :   0.1250 0.5000 0.1667  plane waves:    1227
 k-point  99 :   0.2500 0.5000 0.1667  plane waves:    1223
 k-point 100 :   0.3750 0.5000 0.1667  plane waves:    1215
 k-point 101 :   0.5000 0.5000 0.1667  plane waves:    1214
 k-point 102 :  -0.3750 0.5000 0.1667  plane waves:    1215
 k-point 103 :  -0.2500 0.5000 0.1667  plane waves:    1223
 k-point 104 :  -0.1250 0.5000 0.1667  plane waves:    1227
 k-point 105 :  -0.0000-0.3750 0.1667  plane waves:    1223
 k-point 106 :   0.1250-0.3750 0.1667  plane waves:    1216
 k-point 107 :   0.2500-0.3750 0.1667  plane waves:    1226
 k-point 108 :   0.3750-0.3750 0.1667  plane waves:    1217
 k-point 109 :   0.5000-0.3750 0.1667  plane waves:    1215
 k-point 110 :  -0.3750-0.3750 0.1667  plane waves:    1216
 k-point 111 :  -0.2500-0.3750 0.1667  plane waves:    1221
 k-point 112 :  -0.1250-0.3750 0.1667  plane waves:    1220
 k-point 113 :  -0.0000-0.2500 0.1667  plane waves:    1222
 k-point 114 :   0.1250-0.2500 0.1667  plane waves:    1216
 k-point 115 :   0.2500-0.2500 0.1667  plane waves:    1218
 k-point 116 :   0.3750-0.2500 0.1667  plane waves:    1226
 k-point 117 :   0.5000-0.2500 0.1667  plane waves:    1223
 k-point 118 :  -0.3750-0.2500 0.1667  plane waves:    1221
 k-point 119 :  -0.2500-0.2500 0.1667  plane waves:    1225
 k-point 120 :  -0.1250-0.2500 0.1667  plane waves:    1222
 k-point 121 :  -0.0000-0.1250 0.1667  plane waves:    1226
 k-point 122 :   0.1250-0.1250 0.1667  plane waves:    1224
 k-point 123 :   0.2500-0.1250 0.1667  plane waves:    1216
 k-point 124 :   0.3750-0.1250 0.1667  plane waves:    1216
 k-point 125 :   0.5000-0.1250 0.1667  plane waves:    1227
 k-point 126 :  -0.3750-0.1250 0.1667  plane waves:    1220
 k-point 127 :  -0.2500-0.1250 0.1667  plane waves:    1222
 k-point 128 :  -0.1250-0.1250 0.1667  plane waves:    1226
 k-point 129 :  -0.0000 0.0000 0.3333  plane waves:    1237
 k-point 130 :   0.1250-0.0000 0.3333  plane waves:    1229
 k-point 131 :   0.2500 0.0000 0.3333  plane waves:    1219
 k-point 132 :   0.3750-0.0000 0.3333  plane waves:    1215
 k-point 133 :   0.5000 0.0000 0.3333  plane waves:    1218
 k-point 134 :  -0.3750 0.0000 0.3333  plane waves:    1215
 k-point 135 :  -0.2500-0.0000 0.3333  plane waves:    1219
 k-point 136 :  -0.1250 0.0000 0.3333  plane waves:    1229
 k-point 137 :   0.0000 0.1250 0.3333  plane waves:    1229
 k-point 138 :   0.1250 0.1250 0.3333  plane waves:    1224
 k-point 139 :   0.2500 0.1250 0.3333  plane waves:    1222
 k-point 140 :   0.3750 0.1250 0.3333  plane waves:    1222
 k-point 141 :   0.5000 0.1250 0.3333  plane waves:    1219
 k-point 142 :  -0.3750 0.1250 0.3333  plane waves:    1221
 k-point 143 :  -0.2500 0.1250 0.3333  plane waves:    1224
 k-point 144 :  -0.1250 0.1250 0.3333  plane waves:    1235
 k-point 145 :   0.0000 0.2500 0.3333  plane waves:    1219
 k-point 146 :   0.1250 0.2500 0.3333  plane waves:    1222
 k-point 147 :   0.2500 0.2500 0.3333  plane waves:    1222
 k-point 148 :   0.3750 0.2500 0.3333  plane waves:    1222
 k-point 149 :   0.5000 0.2500 0.3333  plane waves:    1214
 k-point 150 :  -0.3750 0.2500 0.3333  plane waves:    1214
 k-point 151 :  -0.2500 0.2500 0.3333  plane waves:    1222
 k-point 152 :  -0.1250 0.2500 0.3333  plane waves:    1224
 k-point 153 :  -0.0000 0.3750 0.3333  plane waves:    1215
 k-point 154 :   0.1250 0.3750 0.3333  plane waves:    1222
 k-point 155 :   0.2500 0.3750 0.3333  plane waves:    1222
 k-point 156 :   0.3750 0.3750 0.3333  plane waves:    1211
 k-point 157 :   0.5000 0.3750 0.3333  plane waves:    1212
 k-point 158 :  -0.3750 0.3750 0.3333  plane waves:    1209
 k-point 159 :  -0.2500 0.3750 0.3333  plane waves:    1214
 k-point 160 :  -0.1250 0.3750 0.3333  plane waves:    1221
 k-point 161 :   0.0000 0.5000 0.3333  plane waves:    1218
 k-point 162 :   0.1250 0.5000 0.3333  plane waves:    1219
 k-point 163 :   0.2500 0.5000 0.3333  plane waves:    1214
 k-point 164 :   0.3750 0.5000 0.3333  plane waves:    1212
 k-point 165 :   0.5000 0.5000 0.3333  plane waves:    1206
 k-point 166 :  -0.3750 0.5000 0.3333  plane waves:    1212
 k-point 167 :  -0.2500 0.5000 0.3333  plane waves:    1214
 k-point 168 :  -0.1250 0.5000 0.3333  plane waves:    1219
 k-point 169 :  -0.0000-0.3750 0.3333  plane waves:    1215
 k-point 170 :   0.1250-0.3750 0.3333  plane waves:    1222
 k-point 171 :   0.2500-0.3750 0.3333  plane waves:    1214
 k-point 172 :   0.3750-0.3750 0.3333  plane waves:    1207
 k-point 173 :   0.5000-0.3750 0.3333  plane waves:    1212
 k-point 174 :  -0.3750-0.3750 0.3333  plane waves:    1211
 k-point 175 :  -0.2500-0.3750 0.3333  plane waves:    1222
 k-point 176 :  -0.1250-0.3750 0.3333  plane waves:    1222
 k-point 177 :  -0.0000-0.2500 0.3333  plane waves:    1219
 k-point 178 :   0.1250-0.2500 0.3333  plane waves:    1224
 k-point 179 :   0.2500-0.2500 0.3333  plane waves:    1222
 k-point 180 :   0.3750-0.2500 0.3333  plane waves:    1214
 k-point 181 :   0.5000-0.2500 0.3333  plane waves:    1214
 k-point 182 :  -0.3750-0.2500 0.3333  plane waves:    1222
 k-point 183 :  -0.2500-0.2500 0.3333  plane waves:    1222
 k-point 184 :  -0.1250-0.2500 0.3333  plane waves:    1222
 k-point 185 :  -0.0000-0.1250 0.3333  plane waves:    1229
 k-point 186 :   0.1250-0.1250 0.3333  plane waves:    1235
 k-point 187 :   0.2500-0.1250 0.3333  plane waves:    1224
 k-point 188 :   0.3750-0.1250 0.3333  plane waves:    1222
 k-point 189 :   0.5000-0.1250 0.3333  plane waves:    1219
 k-point 190 :  -0.3750-0.1250 0.3333  plane waves:    1222
 k-point 191 :  -0.2500-0.1250 0.3333  plane waves:    1222
 k-point 192 :  -0.1250-0.1250 0.3333  plane waves:    1224
 k-point 193 :  -0.0000 0.0000 0.5000  plane waves:    1242
 k-point 194 :   0.1250 0.0000 0.5000  plane waves:    1230
 k-point 195 :   0.2500-0.0000 0.5000  plane waves:    1230
 k-point 196 :   0.3750 0.0000 0.5000  plane waves:    1218
 k-point 197 :   0.5000-0.0000 0.5000  plane waves:    1220
 k-point 198 :  -0.3750 0.0000 0.5000  plane waves:    1218
 k-point 199 :  -0.2500-0.0000 0.5000  plane waves:    1230
 k-point 200 :  -0.1250 0.0000 0.5000  plane waves:    1230
 k-point 201 :   0.0000 0.1250 0.5000  plane waves:    1230
 k-point 202 :   0.1250 0.1250 0.5000  plane waves:    1232
 k-point 203 :   0.2500 0.1250 0.5000  plane waves:    1228
 k-point 204 :   0.3750 0.1250 0.5000  plane waves:    1226
 k-point 205 :   0.5000 0.1250 0.5000  plane waves:    1222
 k-point 206 :  -0.3750 0.1250 0.5000  plane waves:    1222
 k-point 207 :  -0.2500 0.1250 0.5000  plane waves:    1222
 k-point 208 :  -0.1250 0.1250 0.5000  plane waves:    1234
 k-point 209 :   0.0000 0.2500 0.5000  plane waves:    1230
 k-point 210 :   0.1250 0.2500 0.5000  plane waves:    1228
 k-point 211 :   0.2500 0.2500 0.5000  plane waves:    1220
 k-point 212 :   0.3750 0.2500 0.5000  plane waves:    1222
 k-point 213 :   0.5000 0.2500 0.5000  plane waves:    1210
 k-point 214 :  -0.3750 0.2500 0.5000  plane waves:    1212
 k-point 215 :  -0.2500 0.2500 0.5000  plane waves:    1228
 k-point 216 :  -0.1250 0.2500 0.5000  plane waves:    1222
 k-point 217 :  -0.0000 0.3750 0.5000  plane waves:    1218
 k-point 218 :   0.1250 0.3750 0.5000  plane waves:    1226
 k-point 219 :   0.2500 0.3750 0.5000  plane waves:    1222
 k-point 220 :   0.3750 0.3750 0.5000  plane waves:    1214
 k-point 221 :   0.5000 0.3750 0.5000  plane waves:    1212
 k-point 222 :  -0.3750 0.3750 0.5000  plane waves:    1200
 k-point 223 :  -0.2500 0.3750 0.5000  plane waves:    1212
 k-point 224 :  -0.1250 0.3750 0.5000  plane waves:    1222
 k-point 225 :   0.0000 0.5000 0.5000  plane waves:    1220
 k-point 226 :   0.1250 0.5000 0.5000  plane waves:    1222
 k-point 227 :   0.2500 0.5000 0.5000  plane waves:    1210
 k-point 228 :   0.3750 0.5000 0.5000  plane waves:    1212
 k-point 229 :   0.5000 0.5000 0.5000  plane waves:    1208
 k-point 230 :  -0.3750 0.5000 0.5000  plane waves:    1212
 k-point 231 :  -0.2500 0.5000 0.5000  plane waves:    1210
 k-point 232 :  -0.1250 0.5000 0.5000  plane waves:    1222
 k-point 233 :  -0.0000-0.3750 0.5000  plane waves:    1218
 k-point 234 :   0.1250-0.3750 0.5000  plane waves:    1222
 k-point 235 :   0.2500-0.3750 0.5000  plane waves:    1212
 k-point 236 :   0.3750-0.3750 0.5000  plane waves:    1200
 k-point 237 :   0.5000-0.3750 0.5000  plane waves:    1212
 k-point 238 :  -0.3750-0.3750 0.5000  plane waves:    1214
 k-point 239 :  -0.2500-0.3750 0.5000  plane waves:    1222
 k-point 240 :  -0.1250-0.3750 0.5000  plane waves:    1226
 k-point 241 :  -0.0000-0.2500 0.5000  plane waves:    1230
 k-point 242 :   0.1250-0.2500 0.5000  plane waves:    1222
 k-point 243 :   0.2500-0.2500 0.5000  plane waves:    1228
 k-point 244 :   0.3750-0.2500 0.5000  plane waves:    1212
 k-point 245 :   0.5000-0.2500 0.5000  plane waves:    1210
 k-point 246 :  -0.3750-0.2500 0.5000  plane waves:    1222
 k-point 247 :  -0.2500-0.2500 0.5000  plane waves:    1220
 k-point 248 :  -0.1250-0.2500 0.5000  plane waves:    1228
 k-point 249 :  -0.0000-0.1250 0.5000  plane waves:    1230
 k-point 250 :   0.1250-0.1250 0.5000  plane waves:    1234
 k-point 251 :   0.2500-0.1250 0.5000  plane waves:    1222
 k-point 252 :   0.3750-0.1250 0.5000  plane waves:    1222
 k-point 253 :   0.5000-0.1250 0.5000  plane waves:    1222
 k-point 254 :  -0.3750-0.1250 0.5000  plane waves:    1226
 k-point 255 :  -0.2500-0.1250 0.5000  plane waves:    1228
 k-point 256 :  -0.1250-0.1250 0.5000  plane waves:    1232
 k-point 257 :   0.0000-0.0000-0.3333  plane waves:    1237
 k-point 258 :   0.1250-0.0000-0.3333  plane waves:    1229
 k-point 259 :   0.2500 0.0000-0.3333  plane waves:    1219
 k-point 260 :   0.3750-0.0000-0.3333  plane waves:    1215
 k-point 261 :   0.5000-0.0000-0.3333  plane waves:    1218
 k-point 262 :  -0.3750 0.0000-0.3333  plane waves:    1215
 k-point 263 :  -0.2500-0.0000-0.3333  plane waves:    1219
 k-point 264 :  -0.1250 0.0000-0.3333  plane waves:    1229
 k-point 265 :   0.0000 0.1250-0.3333  plane waves:    1229
 k-point 266 :   0.1250 0.1250-0.3333  plane waves:    1224
 k-point 267 :   0.2500 0.1250-0.3333  plane waves:    1222
 k-point 268 :   0.3750 0.1250-0.3333  plane waves:    1222
 k-point 269 :   0.5000 0.1250-0.3333  plane waves:    1219
 k-point 270 :  -0.3750 0.1250-0.3333  plane waves:    1222
 k-point 271 :  -0.2500 0.1250-0.3333  plane waves:    1224
 k-point 272 :  -0.1250 0.1250-0.3333  plane waves:    1235
 k-point 273 :   0.0000 0.2500-0.3333  plane waves:    1219
 k-point 274 :   0.1250 0.2500-0.3333  plane waves:    1222
 k-point 275 :   0.2500 0.2500-0.3333  plane waves:    1222
 k-point 276 :   0.3750 0.2500-0.3333  plane waves:    1222
 k-point 277 :   0.5000 0.2500-0.3333  plane waves:    1214
 k-point 278 :  -0.3750 0.2500-0.3333  plane waves:    1214
 k-point 279 :  -0.2500 0.2500-0.3333  plane waves:    1222
 k-point 280 :  -0.1250 0.2500-0.3333  plane waves:    1224
 k-point 281 :   0.0000 0.3750-0.3333  plane waves:    1215
 k-point 282 :   0.1250 0.3750-0.3333  plane waves:    1222
 k-point 283 :   0.2500 0.3750-0.3333  plane waves:    1222
 k-point 284 :   0.3750 0.3750-0.3333  plane waves:    1211
 k-point 285 :   0.5000 0.3750-0.3333  plane waves:    1212
 k-point 286 :  -0.3750 0.3750-0.3333  plane waves:    1207
 k-point 287 :  -0.2500 0.3750-0.3333  plane waves:    1214
 k-point 288 :  -0.1250 0.3750-0.3333  plane waves:    1222
 k-point 289 :   0.0000 0.5000-0.3333  plane waves:    1218
 k-point 290 :   0.1250 0.5000-0.3333  plane waves:    1219
 k-point 291 :   0.2500 0.5000-0.3333  plane waves:    1214
 k-point 292 :   0.3750 0.5000-0.3333  plane waves:    1212
 k-point 293 :   0.5000 0.5000-0.3333  plane waves:    1206
 k-point 294 :  -0.3750 0.5000-0.3333  plane waves:    1212
 k-point 295 :  -0.2500 0.5000-0.3333  plane waves:    1214
 k-point 296 :  -0.1250 0.5000-0.3333  plane waves:    1219
 k-point 297 :   0.0000-0.3750-0.3333  plane waves:    1215
 k-point 298 :   0.1250-0.3750-0.3333  plane waves:    1221
 k-point 299 :   0.2500-0.3750-0.3333  plane waves:    1214
 k-point 300 :   0.3750-0.3750-0.3333  plane waves:    1209
 k-point 301 :   0.5000-0.3750-0.3333  plane waves:    1212
 k-point 302 :  -0.3750-0.3750-0.3333  plane waves:    1211
 k-point 303 :  -0.2500-0.3750-0.3333  plane waves:    1222
 k-point 304 :  -0.1250-0.3750-0.3333  plane waves:    1222
 k-point 305 :  -0.0000-0.2500-0.3333  plane waves:    1219
 k-point 306 :   0.1250-0.2500-0.3333  plane waves:    1224
 k-point 307 :   0.2500-0.2500-0.3333  plane waves:    1222
 k-point 308 :   0.3750-0.2500-0.3333  plane waves:    1214
 k-point 309 :   0.5000-0.2500-0.3333  plane waves:    1214
 k-point 310 :  -0.3750-0.2500-0.3333  plane waves:    1222
 k-point 311 :  -0.2500-0.2500-0.3333  plane waves:    1222
 k-point 312 :  -0.1250-0.2500-0.3333  plane waves:    1222
 k-point 313 :  -0.0000-0.1250-0.3333  plane waves:    1229
 k-point 314 :   0.1250-0.1250-0.3333  plane waves:    1235
 k-point 315 :   0.2500-0.1250-0.3333  plane waves:    1224
 k-point 316 :   0.3750-0.1250-0.3333  plane waves:    1221
 k-point 317 :   0.5000-0.1250-0.3333  plane waves:    1219
 k-point 318 :  -0.3750-0.1250-0.3333  plane waves:    1222
 k-point 319 :  -0.2500-0.1250-0.3333  plane waves:    1222
 k-point 320 :  -0.1250-0.1250-0.3333  plane waves:    1224
 k-point 321 :   0.0000-0.0000-0.1667  plane waves:    1231
 k-point 322 :   0.1250 0.0000-0.1667  plane waves:    1226
 k-point 323 :   0.2500-0.0000-0.1667  plane waves:    1222
 k-point 324 :   0.3750 0.0000-0.1667  plane waves:    1223
 k-point 325 :   0.5000 0.0000-0.1667  plane waves:    1230
 k-point 326 :  -0.3750-0.0000-0.1667  plane waves:    1223
 k-point 327 :  -0.2500-0.0000-0.1667  plane waves:    1222
 k-point 328 :  -0.1250-0.0000-0.1667  plane waves:    1226
 k-point 329 :   0.0000 0.1250-0.1667  plane waves:    1226
 k-point 330 :   0.1250 0.1250-0.1667  plane waves:    1226
 k-point 331 :   0.2500 0.1250-0.1667  plane waves:    1222
 k-point 332 :   0.3750 0.1250-0.1667  plane waves:    1220
 k-point 333 :   0.5000 0.1250-0.1667  plane waves:    1227
 k-point 334 :  -0.3750 0.1250-0.1667  plane waves:    1216
 k-point 335 :  -0.2500 0.1250-0.1667  plane waves:    1216
 k-point 336 :  -0.1250 0.1250-0.1667  plane waves:    1224
 k-point 337 :   0.0000 0.2500-0.1667  plane waves:    1222
 k-point 338 :   0.1250 0.2500-0.1667  plane waves:    1222
 k-point 339 :   0.2500 0.2500-0.1667  plane waves:    1225
 k-point 340 :   0.3750 0.2500-0.1667  plane waves:    1221
 k-point 341 :   0.5000 0.2500-0.1667  plane waves:    1223
 k-point 342 :  -0.3750 0.2500-0.1667  plane waves:    1226
 k-point 343 :  -0.2500 0.2500-0.1667  plane waves:    1218
 k-point 344 :  -0.1250 0.2500-0.1667  plane waves:    1216
 k-point 345 :   0.0000 0.3750-0.1667  plane waves:    1223
 k-point 346 :   0.1250 0.3750-0.1667  plane waves:    1220
 k-point 347 :   0.2500 0.3750-0.1667  plane waves:    1221
 k-point 348 :   0.3750 0.3750-0.1667  plane waves:    1216
 k-point 349 :   0.5000 0.3750-0.1667  plane waves:    1215
 k-point 350 :  -0.3750 0.3750-0.1667  plane waves:    1217
 k-point 351 :  -0.2500 0.3750-0.1667  plane waves:    1226
 k-point 352 :  -0.1250 0.3750-0.1667  plane waves:    1216
 k-point 353 :   0.0000 0.5000-0.1667  plane waves:    1230
 k-point 354 :   0.1250 0.5000-0.1667  plane waves:    1227
 k-point 355 :   0.2500 0.5000-0.1667  plane waves:    1223
 k-point 356 :   0.3750 0.5000-0.1667  plane waves:    1215
 k-point 357 :   0.5000 0.5000-0.1667  plane waves:    1214
 k-point 358 :  -0.3750 0.5000-0.1667  plane waves:    1215
 k-point 359 :  -0.2500 0.5000-0.1667  plane waves:    1223
 k-point 360 :  -0.1250 0.5000-0.1667  plane waves:    1227
 k-point 361 :  -0.0000-0.3750-0.1667  plane waves:    1223
 k-point 362 :   0.1250-0.3750-0.1667  plane waves:    1216
 k-point 363 :   0.2500-0.3750-0.1667  plane waves:    1226
 k-point 364 :   0.3750-0.3750-0.1667  plane waves:    1217
 k-point 365 :   0.5000-0.3750-0.1667  plane waves:    1215
 k-point 366 :  -0.3750-0.3750-0.1667  plane waves:    1216
 k-point 367 :  -0.2500-0.3750-0.1667  plane waves:    1221
 k-point 368 :  -0.1250-0.3750-0.1667  plane waves:    1220
 k-point 369 :  -0.0000-0.2500-0.1667  plane waves:    1222
 k-point 370 :   0.1250-0.2500-0.1667  plane waves:    1216
 k-point 371 :   0.2500-0.2500-0.1667  plane waves:    1218
 k-point 372 :   0.3750-0.2500-0.1667  plane waves:    1226
 k-point 373 :   0.5000-0.2500-0.1667  plane waves:    1223
 k-point 374 :  -0.3750-0.2500-0.1667  plane waves:    1221
 k-point 375 :  -0.2500-0.2500-0.1667  plane waves:    1225
 k-point 376 :  -0.1250-0.2500-0.1667  plane waves:    1222
 k-point 377 :  -0.0000-0.1250-0.1667  plane waves:    1226
 k-point 378 :   0.1250-0.1250-0.1667  plane waves:    1224
 k-point 379 :   0.2500-0.1250-0.1667  plane waves:    1216
 k-point 380 :   0.3750-0.1250-0.1667  plane waves:    1216
 k-point 381 :   0.5000-0.1250-0.1667  plane waves:    1227
 k-point 382 :  -0.3750-0.1250-0.1667  plane waves:    1220
 k-point 383 :  -0.2500-0.1250-0.1667  plane waves:    1222
 k-point 384 :  -0.1250-0.1250-0.1667  plane waves:    1226

 maximum and minimum number of plane-waves per node :      1242     1200

 maximum number of plane-waves:      1242
 maximum index in each direction: 
   IXMAX=    6   IYMAX=    6   IZMAX=    9
   IXMIN=   -6   IYMIN=   -6   IZMIN=   -9


 serial   3D FFT for wavefunctions
 parallel 3D FFT for charge:
    minimum data exchange during FFTs selected (reduces bandwidth)


 total amount of memory used by VASP MPI-rank0   177935. kBytes
=======================================================================

   base      :      30000. kBytes
   nonl-proj :     138098. kBytes
   fftplans  :        347. kBytes
   grid      :       1368. kBytes
   one-center:         62. kBytes
   wavefun   :       8060. kBytes
 
     INWAV:  cpu time      0.0000: real time      0.0000
 Broyden mixing: mesh for mixing (old mesh)
   NGX = 11   NGY = 11   NGZ = 19
  (NGX  = 48   NGY  = 48   NGZ  = 80)
  gives a total of   2299 points

 initial charge density was supplied:
 charge density of overlapping atoms calculated
 number of electron      36.0000000 magnetization 
 keeping initial charge density in first step


--------------------------------------------------------------------------------------------------------


 Maximum index for augmentation-charges         1105 (set IRDMAX)


--------------------------------------------------------------------------------------------------------


 First call to EWALD:  gamma=   0.534
 Maximum number of real-space cells 3x 3x 2
 Maximum number of reciprocal cells 2x 2x 4

    FEWALD:  cpu time      0.0031: real time      0.0031


--------------------------------------- Iteration      1(   1)  ---------------------------------------


    POTLOK:  cpu time      0.0155: real time      0.0254
    SETDIJ:  cpu time      0.0075: real time      0.0097
     EDDAV:  cpu time      4.6747: real time      4.7110
       DOS:  cpu time      0.0046: real time      0.0084
    --------------------------------------------
      LOOP:  cpu time      4.7025: real time      4.7548

 eigenvalue-minimisations  : 24576
 total energy-change (2. order) : 0.5768049E+02  (-0.2311867E+04)
 number of electron      36.0000000 magnetization 
 augmentation part       36.0000000 magnetization 

 Free energy of the ion-electron system (eV)
  ---------------------------------------------------
  alpha Z        PSCENC =       246.68182591
  Ewald energy   TEWEN  =     -3479.64608150
  -Hartree energ DENC   =      -986.85769398
  -exchange      EXHF   =         0.00000000
  -V(xc)+E(xc)   XCENC  =       131.04135076
  PAW double counting   =      3616.17691320    -4285.66495278
  entropy T*S    EENTRO =        -0.00031134
  eigenvalues    EBANDS =       -10.78315792
  atomic energy  EATOM  =      4826.73260078
  Solvation  Ediel_sol  =         0.00000000
  ---------------------------------------------------
  free energy    TOTEN  =        57.68049314 eV

  energy without entropy =       57.68080448  energy(sigma->0) =       57.68064881


--------------------------------------------------------------------------------------------------------




--------------------------------------- Iteration      1(   2)  ---------------------------------------


     EDDAV:  cpu time      6.9568: real time      7.0240
       DOS:  cpu time      0.0020: real time      0.0020
    --------------------------------------------
      LOOP:  cpu time      6.9588: real time      7.0258

 eigenvalue-minimisations  : 28896
 total energy-change (2. order) :-0.8288529E+02  (-0.8221299E+02)
 number of electron      36.0000000 magnetization 
 augmentation part       36.0000000 magnetization 

 Free energy of the ion-electron system (eV)
  ---------------------------------------------------
  alpha Z        PSCENC =       246.68182591
  Ewald energy   TEWEN  =     -3479.64608150
  -Hartree energ DENC   =      -986.85769398
  -exchange      EXHF   =         0.00000000
  -V(xc)+E(xc)   XCENC  =       131.04135076
  PAW double counting   =      3616.17691320    -4285.66495278
  entropy T*S    EENTRO =        -0.00000000
  eigenvalues    EBANDS =       -93.66876327
  atomic energy  EATOM  =      4826.73260078
  Solvation  Ediel_sol  =         0.00000000
  ---------------------------------------------------
  free energy    TOTEN  =       -25.20480087 eV

  energy without entropy =      -25.20480087  energy(sigma->0) =      -25.20480087


--------------------------------------------------------------------------------------------------------




--------------------------------------- Iteration      1(   3)  ---------------------------------------


     EDDAV:  cpu time      7.9334: real time      7.9938
       DOS:  cpu time      0.0018: real time      0.0018
    --------------------------------------------
      LOOP:  cpu time      7.9351: real time      7.9955

 eigenvalue-minimisations  : 29504
 total energy-change (2. order) :-0.1204286E+01  (-0.1204286E+01)
 number of electron      36.0000000 magnetization 
 augmentation part       36.0000000 magnetization 

 Free energy of the ion-electron system (eV)
  ---------------------------------------------------
  alpha Z        PSCENC =       246.68182591
  Ewald energy   TEWEN  =     -3479.64608150
  -Hartree energ DENC   =      -986.85769398
  -exchange      EXHF   =         0.00000000
  -V(xc)+E(xc)   XCENC  =       131.04135076
  PAW double counting   =      3616.17691320    -4285.66495278
  entropy T*S    EENTRO =        -0.00000000
  eigenvalues    EBANDS =       -94.87304953
  atomic energy  EATOM  =      4826.73260078
  Solvation  Ediel_sol  =         0.00000000
  ---------------------------------------------------
  free energy    TOTEN  =       -26.40908713 eV

  energy without entropy =      -26.40908713  energy(sigma->0) =      -26.40908713


--------------------------------------------------------------------------------------------------------




--------------------------------------- Iteration      1(   4)  ---------------------------------------


     EDDAV:  cpu time     14.3022: real time     14.3793
       DOS:  cpu time      0.0021: real time      0.0021
    --------------------------------------------
      LOOP:  cpu time     14.3043: real time     14.3814

 eigenvalue-minimisations  : 41280
 total energy-change (2. order) :-0.4400910E-02  (-0.4400910E-02)
 number of electron      36.0000000 magnetization 
 augmentation part       36.0000000 magnetization 

 Free energy of the ion-electron system (eV)
  ---------------------------------------------------
  alpha Z        PSCENC =       246.68182591
  Ewald energy   TEWEN  =     -3479.64608150
  -Hartree energ DENC   =      -986.85769398
  -exchange      EXHF   =         0.00000000
  -V(xc)+E(xc)   XCENC  =       131.04135076
  PAW double counting   =      3616.17691320    -4285.66495278
  entropy T*S    EENTRO =        -0.00000000
  eigenvalues    EBANDS =       -94.87745044
  atomic energy  EATOM  =      4826.73260078
  Solvation  Ediel_sol  =         0.00000000
  ---------------------------------------------------
  free energy    TOTEN  =       -26.41348804 eV

  energy without entropy =      -26.41348804  energy(sigma->0) =      -26.41348804


--------------------------------------------------------------------------------------------------------




--------------------------------------- Iteration      1(   5)  ---------------------------------------


     EDDAV:  cpu time      8.8763: real time      8.9231
       DOS:  cpu time      0.0021: real time      0.0021
    CHARGE:  cpu time      0.1332: real time      0.1439
    MIXING:  cpu time      0.0046: real time      0.0093
    --------------------------------------------
      LOOP:  cpu time      9.0163: real time      9.0787

 eigenvalue-minimisations  : 30624
 total energy-change (2. order) :-0.7789449E-06  (-0.7789438E-06)
 number of electron      36.0000003 magnetization 
 augmentation part       17.6952325 magnetization 

 Broyden mixing:
  rms(total) = 0.11552E+01    rms(broyden)= 0.11551E+01
  rms(prec ) = 0.25928E+01
  weight for this iteration     100.00

 Free energy of the ion-electron system (eV)
  ---------------------------------------------------
  alpha Z        PSCENC =       246.68182591
  Ewald energy   TEWEN  =     -3479.64608150
  -Hartree energ DENC   =      -986.85769398
  -exchange      EXHF   =         0.00000000
  -V(xc)+E(xc)   XCENC  =       131.04135076
  PAW double counting   =      3616.17691320    -4285.66495278
  entropy T*S    EENTRO =        -0.00000000
  eigenvalues    EBANDS =       -94.87745122
  atomic energy  EATOM  =      4826.73260078
  Solvation  Ediel_sol  =         0.00000000
  ---------------------------------------------------
  free energy    TOTEN  =       -26.41348882 eV

  energy without entropy =      -26.41348882  energy(sigma->0) =      -26.41348882


--------------------------------------------------------------------------------------------------------




--------------------------------------- Iteration      1(   6)  ---------------------------------------


    POTLOK:  cpu time      0.0061: real time      0.0061
    SETDIJ:  cpu time      0.0030: real time      0.0030
     EDDAV:  cpu time      9.3583: real time      9.4096
       DOS:  cpu time      0.0025: real time      0.0025
    CHARGE:  cpu time      0.1277: real time      0.1277
    MIXING:  cpu time      0.0033: real time      0.0033
    --------------------------------------------
      LOOP:  cpu time      9.5008: real time      9.5521

 eigenvalue-minimisations  : 33184
 total energy-change (2. order) : 0.4392315E+01  (-0.2502103E+01)
 number of electron      36.0000003 magnetization 
 augmentation part       17.4530840 magnetization 

 Broyden mixing:
  rms(total) = 0.38606E+00    rms(broyden)= 0.38600E+00
  rms(prec ) = 0.52896E+00
  weight for this iteration     100.00

 eigenvalues of (default mixing * dielectric matrix)
  average eigenvalue GAMMA=   0.9443
  0.9443

 Free energy of the ion-electron system (eV)
  ---------------------------------------------------
  alpha Z        PSCENC =       246.68182591
  Ewald energy   TEWEN  =     -3479.64608150
  -Hartree energ DENC   =      -989.04412559
  -exchange      EXHF   =         0.00000000
  -V(xc)+E(xc)   XCENC  =       132.30455493
  PAW double counting   =      3924.00760790    -4592.01961629
  entropy T*S    EENTRO =        -0.00000000
  eigenvalues    EBANDS =       -91.03793972
  atomic energy  EATOM  =      4826.73260078
  Solvation  Ediel_sol  =         0.00000000
  ---------------------------------------------------
  free energy    TOTEN  =       -22.02117357 eV

  energy without entropy =      -22.02117357  energy(sigma->0) =      -22.02117357


--------------------------------------------------------------------------------------------------------




--------------------------------------- Iteration      1(   7)  ---------------------------------------


    POTLOK:  cpu time      0.0060: real time      0.0060
    SETDIJ:  cpu time      0.0028: real time      0.0028
     EDDAV:  cpu time      6.3531: real time      6.3851
       DOS:  cpu time      0.0018: real time      0.0018
    CHARGE:  cpu time      0.1321: real time      0.1321
    MIXING:  cpu time      0.0007: real time      0.0007
    --------------------------------------------
      LOOP:  cpu time      6.4966: real time      6.5285

 eigenvalue-minimisations  : 25216
 total energy-change (2. order) : 0.5276878E-01  (-0.2800489E-01)
 number of electron      36.0000003 magnetization 
 augmentation part       17.4159096 magnetization 

 Broyden mixing:
  rms(total) = 0.23747E+00    rms(broyden)= 0.23746E+00
  rms(prec ) = 0.32167E+00
  weight for this iteration     100.00

 eigenvalues of (default mixing * dielectric matrix)
  average eigenvalue GAMMA=   1.7308
  1.0419  2.4197

 Free energy of the ion-electron system (eV)
  ---------------------------------------------------
  alpha Z        PSCENC =       246.68182591
  Ewald energy   TEWEN  =     -3479.64608150
  -Hartree energ DENC   =      -987.21898750
  -exchange      EXHF   =         0.00000000
  -V(xc)+E(xc)   XCENC  =       132.27887158
  PAW double counting   =      4239.81341553    -4914.22389549
  entropy T*S    EENTRO =        -0.00000000
  eigenvalues    EBANDS =       -86.38615412
  atomic energy  EATOM  =      4826.73260078
  Solvation  Ediel_sol  =         0.00000000
  ---------------------------------------------------
  free energy    TOTEN  =       -21.96840479 eV

  energy without entropy =      -21.96840479  energy(sigma->0) =      -21.96840479


--------------------------------------------------------------------------------------------------------




--------------------------------------- Iteration      1(   8)  ---------------------------------------


    POTLOK:  cpu time      0.0058: real time      0.0058
    SETDIJ:  cpu time      0.0028: real time      0.0028
     EDDAV:  cpu time     13.4823: real time     13.5564
       DOS:  cpu time      0.0025: real time      0.0025
    CHARGE:  cpu time      0.1346: real time      0.1347
    MIXING:  cpu time      0.0006: real time      0.0006
    --------------------------------------------
      LOOP:  cpu time     13.6286: real time     13.7028

 eigenvalue-minimisations  : 40128
 total energy-change (2. order) : 0.3009531E-01  (-0.4825372E-02)
 number of electron      36.0000003 magnetization 
 augmentation part       17.3980122 magnetization 

 Broyden mixing:
  rms(total) = 0.25893E-01    rms(broyden)= 0.25890E-01
  rms(prec ) = 0.34784E-01
  weight for this iteration     100.00

 eigenvalues of (default mixing * dielectric matrix)
  average eigenvalue GAMMA=   1.5620
  2.2532  1.0448  1.3882

 Free energy of the ion-electron system (eV)
  ---------------------------------------------------
  alpha Z        PSCENC =       246.68182591
  Ewald energy   TEWEN  =     -3479.64608150
  -Hartree energ DENC   =      -982.14919541
  -exchange      EXHF   =         0.00000000
  -V(xc)+E(xc)   XCENC  =       132.09349894
  PAW double counting   =      4730.88112186    -5412.42865279
  entropy T*S    EENTRO =        -0.00000000
  eigenvalues    EBANDS =       -84.10342728
  atomic energy  EATOM  =      4826.73260078
  Solvation  Ediel_sol  =         0.00000000
  ---------------------------------------------------
  free energy    TOTEN  =       -21.93830948 eV

  energy without entropy =      -21.93830948  energy(sigma->0) =      -21.93830948


--------------------------------------------------------------------------------------------------------




--------------------------------------- Iteration      1(   9)  ---------------------------------------


    POTLOK:  cpu time      0.0068: real time      0.0068
    SETDIJ:  cpu time      0.0031: real time      0.0031
     EDDAV:  cpu time      7.6982: real time      7.7458
       DOS:  cpu time      0.0018: real time      0.0018
    CHARGE:  cpu time      0.1308: real time      0.1309
    MIXING:  cpu time      0.0007: real time      0.0007
    --------------------------------------------
      LOOP:  cpu time      7.8413: real time      7.8890

 eigenvalue-minimisations  : 28160
 total energy-change (2. order) : 0.5170748E-03  (-0.5761295E-03)
 number of electron      36.0000003 magnetization 
 augmentation part       17.4030904 magnetization 

 Broyden mixing:
  rms(total) = 0.10291E-01    rms(broyden)= 0.10291E-01
  rms(prec ) = 0.14304E-01
  weight for this iteration     100.00

 eigenvalues of (default mixing * dielectric matrix)
  average eigenvalue GAMMA=   1.7056
  1.0943  1.0943  2.4576  2.1761

 Free energy of the ion-electron system (eV)
  ---------------------------------------------------
  alpha Z        PSCENC =       246.68182591
  Ewald energy   TEWEN  =     -3479.64608150
  -Hartree energ DENC   =      -981.52767326
  -exchange      EXHF   =         0.00000000
  -V(xc)+E(xc)   XCENC  =       132.07064935
  PAW double counting   =      4715.26958205    -5395.91569348
  entropy T*S    EENTRO =        -0.00000000
  eigenvalues    EBANDS =       -85.60300226
  atomic energy  EATOM  =      4826.73260078
  Solvation  Ediel_sol  =         0.00000000
  ---------------------------------------------------
  free energy    TOTEN  =       -21.93779241 eV

  energy without entropy =      -21.93779241  energy(sigma->0) =      -21.93779241


--------------------------------------------------------------------------------------------------------




--------------------------------------- Iteration      1(  10)  ---------------------------------------


    POTLOK:  cpu time      0.0057: real time      0.0057
    SETDIJ:  cpu time      0.0024: real time      0.0024
     EDDAV:  cpu time      6.9966: real time      7.0301
       DOS:  cpu time      0.0017: real time      0.0017
    CHARGE:  cpu time      0.1261: real time      0.1262
    MIXING:  cpu time      0.0007: real time      0.0007
    --------------------------------------------
      LOOP:  cpu time      7.1333: real time      7.1669

 eigenvalue-minimisations  : 30272
 total energy-change (2. order) :-0.8918947E-04  (-0.6658293E-04)
 number of electron      36.0000003 magnetization 
 augmentation part       17.4037603 magnetization 

 Broyden mixing:
  rms(total) = 0.33268E-02    rms(broyden)= 0.33268E-02
  rms(prec ) = 0.52588E-02
  weight for this iteration     100.00

 eigenvalues of (default mixing * dielectric matrix)
  average eigenvalue GAMMA=   1.6762
  2.7095  2.2844  1.0182  1.0182  1.3509

 Free energy of the ion-electron system (eV)
  ---------------------------------------------------
  alpha Z        PSCENC =       246.68182591
  Ewald energy   TEWEN  =     -3479.64608150
  -Hartree energ DENC   =      -981.31564675
  -exchange      EXHF   =         0.00000000
  -V(xc)+E(xc)   XCENC  =       132.05651466
  PAW double counting   =      4723.32196466    -5404.19048655
  entropy T*S    EENTRO =        -0.00000000
  eigenvalues    EBANDS =       -85.57857281
  atomic energy  EATOM  =      4826.73260078
  Solvation  Ediel_sol  =         0.00000000
  ---------------------------------------------------
  free energy    TOTEN  =       -21.93788160 eV

  energy without entropy =      -21.93788160  energy(sigma->0) =      -21.93788160


--------------------------------------------------------------------------------------------------------




--------------------------------------- Iteration      1(  11)  ---------------------------------------


    POTLOK:  cpu time      0.0051: real time      0.0051
    SETDIJ:  cpu time      0.0026: real time      0.0026
     EDDAV:  cpu time      9.7872: real time      9.8334
       DOS:  cpu time      0.0015: real time      0.0015
    CHARGE:  cpu time      0.1234: real time      0.1235
    MIXING:  cpu time      0.0006: real time      0.0005
    --------------------------------------------
      LOOP:  cpu time      9.9204: real time      9.9667

 eigenvalue-minimisations  : 37408
 total energy-change (2. order) :-0.3020232E-06  (-0.8459231E-05)
 number of electron      36.0000003 magnetization 
 augmentation part       17.4030615 magnetization 

 Broyden mixing:
  rms(total) = 0.86904E-03    rms(broyden)= 0.86899E-03
  rms(prec ) = 0.10521E-02
  weight for this iteration     100.00

 eigenvalues of (default mixing * dielectric matrix)
  average eigenvalue GAMMA=   1.6727
  2.7705  2.5433  1.0205  1.0205  1.4657  1.2157

 Free energy of the ion-electron system (eV)
  ---------------------------------------------------
  alpha Z        PSCENC =       246.68182591
  Ewald energy   TEWEN  =     -3479.64608150
  -Hartree energ DENC   =      -981.35164950
  -exchange      EXHF   =         0.00000000
  -V(xc)+E(xc)   XCENC  =       132.05988337
  PAW double counting   =      4723.11102618    -5404.02421836
  entropy T*S    EENTRO =        -0.00000000
  eigenvalues    EBANDS =       -85.50126879
  atomic energy  EATOM  =      4826.73260078
  Solvation  Ediel_sol  =         0.00000000
  ---------------------------------------------------
  free energy    TOTEN  =       -21.93788190 eV

  energy without entropy =      -21.93788190  energy(sigma->0) =      -21.93788190


--------------------------------------------------------------------------------------------------------




--------------------------------------- Iteration      1(  12)  ---------------------------------------


    POTLOK:  cpu time      0.0054: real time      0.0054
    SETDIJ:  cpu time      0.0021: real time      0.0021
     EDDAV:  cpu time      8.2585: real time      8.2933
       DOS:  cpu time      0.0017: real time      0.0017
    CHARGE:  cpu time      0.1884: real time      0.1884
    MIXING:  cpu time      0.0007: real time      0.0007
    --------------------------------------------
      LOOP:  cpu time      8.4568: real time      8.4916

 eigenvalue-minimisations  : 32512
 total energy-change (2. order) :-0.1635690E-06  (-0.2262170E-06)
 number of electron      36.0000003 magnetization 
 augmentation part       17.4030707 magnetization 

 Broyden mixing:
  rms(total) = 0.48239E-03    rms(broyden)= 0.48237E-03
  rms(prec ) = 0.54022E-03
  weight for this iteration     100.00

 eigenvalues of (default mixing * dielectric matrix)
  average eigenvalue GAMMA=   1.6373
  2.7490  2.4980  1.9613  1.3298  1.0040  1.0040  0.9147

 Free energy of the ion-electron system (eV)
  ---------------------------------------------------
  alpha Z        PSCENC =       246.68182591
  Ewald energy   TEWEN  =     -3479.64608150
  -Hartree energ DENC   =      -981.38169714
  -exchange      EXHF   =         0.00000000
  -V(xc)+E(xc)   XCENC  =       132.06092659
  PAW double counting   =      4721.08398134    -5401.97540983
  entropy T*S    EENTRO =        -0.00000000
  eigenvalues    EBANDS =       -85.49402823
  atomic energy  EATOM  =      4826.73260078
  Solvation  Ediel_sol  =         0.00000000
  ---------------------------------------------------
  free energy    TOTEN  =       -21.93788206 eV

  energy without entropy =      -21.93788206  energy(sigma->0) =      -21.93788206


--------------------------------------------------------------------------------------------------------




--------------------------------------- Iteration      1(  13)  ---------------------------------------


    POTLOK:  cpu time      0.0057: real time      0.0057
    SETDIJ:  cpu time      0.0027: real time      0.0027
     EDDAV:  cpu time      8.4671: real time      8.5133
       DOS:  cpu time      0.0016: real time      0.0016
    CHARGE:  cpu time      0.1449: real time      0.1450
    MIXING:  cpu time      0.0007: real time      0.0007
    --------------------------------------------
      LOOP:  cpu time      8.6226: real time      8.6689

 eigenvalue-minimisations  : 31232
 total energy-change (2. order) : 0.1923263E-06  (-0.1044853E-07)
 number of electron      36.0000003 magnetization 
 augmentation part       17.4030913 magnetization 

 Broyden mixing:
  rms(total) = 0.10455E-03    rms(broyden)= 0.10455E-03
  rms(prec ) = 0.12716E-03
  weight for this iteration     100.00

 eigenvalues of (default mixing * dielectric matrix)
  average eigenvalue GAMMA=   1.7092
  2.9294  2.4525  2.3760  0.9909  1.0132  1.0132  1.4491  1.4491

 Free energy of the ion-electron system (eV)
  ---------------------------------------------------
  alpha Z        PSCENC =       246.68182591
  Ewald energy   TEWEN  =     -3479.64608150
  -Hartree energ DENC   =      -981.37895476
  -exchange      EXHF   =         0.00000000
  -V(xc)+E(xc)   XCENC  =       132.06081742
  PAW double counting   =      4721.53325497    -5402.42395698
  entropy T*S    EENTRO =        -0.00000000
  eigenvalues    EBANDS =       -85.49738772
  atomic energy  EATOM  =      4826.73260078
  Solvation  Ediel_sol  =         0.00000000
  ---------------------------------------------------
  free energy    TOTEN  =       -21.93788187 eV

  energy without entropy =      -21.93788187  energy(sigma->0) =      -21.93788187


--------------------------------------------------------------------------------------------------------




--------------------------------------- Iteration      1(  14)  ---------------------------------------


    POTLOK:  cpu time      0.0055: real time      0.0055
    SETDIJ:  cpu time      0.0025: real time      0.0025
     EDDAV:  cpu time      2.9690: real time      2.9834
       DOS:  cpu time      0.0016: real time      0.0016
    --------------------------------------------
      LOOP:  cpu time      2.9786: real time      2.9930

 eigenvalue-minimisations  : 13856
 total energy-change (2. order) : 0.6626669E-07  (-0.2035267E-08)
 number of electron      36.0000003 magnetization 
 augmentation part       17.4030913 magnetization 

 Free energy of the ion-electron system (eV)
  ---------------------------------------------------
  alpha Z        PSCENC =       246.68182591
  Ewald energy   TEWEN  =     -3479.64608150
  -Hartree energ DENC   =      -981.38132239
  -exchange      EXHF   =         0.00000000
  -V(xc)+E(xc)   XCENC  =       132.06090060
  PAW double counting   =      4721.55231840    -5402.44137585
  entropy T*S    EENTRO =        -0.00000000
  eigenvalues    EBANDS =       -85.49674776
  atomic energy  EATOM  =      4826.73260078
  Solvation  Ediel_sol  =         0.00000000
  ---------------------------------------------------
  free energy    TOTEN  =       -21.93788180 eV

  energy without entropy =      -21.93788180  energy(sigma->0) =      -21.93788180


--------------------------------------------------------------------------------------------------------




 average (electrostatic) potential at core
  the test charge radii are     1.0314  0.7089
  (the norm of the test charge is              1.0000)
       1 -61.1705       2 -61.1704       3 -59.2940       4 -59.2940
 
 
 
 E-fermi :   8.5951     XC(G=0): -13.0967     alpha+bet :-16.7293

 Fermi energy:         8.5950660108

 k-point     1 :       0.0000    0.0000    0.0000
  band No.  band energies     occupation 
      1      -9.7564      2.00000
      2      -8.2028      2.00000
      3      -5.9163      2.00000
      4      -5.8613      2.00000
      5      -5.7966      2.00000
      6      -5.6165      2.00000
      7      -5.6017      2.00000
      8      -5.5069      2.00000
      9      -5.4964      2.00000
     10      -5.3897      2.00000
     11      -5.3038      2.00000
     12      -3.6660      2.00000
     13      -0.0626      2.00000
     14       5.1201      2.00000
     15       6.9283      2.00000
     16       7.1474      2.00000
     17       8.0773      2.00000
     18       8.3376      2.00000
     19      11.0665      0.00000
     20      11.3446      0.00000
     21      17.4369      0.00000
     22      19.3815      0.00000
     23      20.8092      0.00000
     24      22.2116      0.00000
     25      22.3887      0.00000
     26      22.4481      0.00000
     27      22.6056      0.00000
     28      25.1224      0.00000
     29      26.2592      0.00000
     30      26.5549      0.00000
     31      28.1829      0.00000
     32      29.9168      0.00000

 k-point     2 :       0.1250   -0.0000    0.0000
  band No.  band energies     occupation 
      1      -9.5354      2.00000
      2      -8.0964      2.00000
      3      -5.9124      2.00000
      4      -5.8413      2.00000
      5      -5.7682      2.00000
      6      -5.6218      2.00000
      7      -5.6110      2.00000
      8      -5.5296      2.00000
      9      -5.4992      2.00000
     10      -5.4194      2.00000
     11      -5.3311      2.00000
     12      -3.6090      2.00000
     13       0.1984      2.00000
     14       4.2770      2.00000
     15       6.2494      2.00000
     16       6.6416      2.00000
     17       7.8022      2.00000
     18       8.1149      2.00000
     19      12.0251      0.00000
     20      12.3593      0.00000
     21      17.6914      0.00000
     22      19.0325      0.00000
     23      19.8868      0.00000
     24      21.0196      0.00000
     25      21.9302      0.00000
     26      22.6927      0.00000
     27      23.2771      0.00000
     28      24.8513      0.00000
     29      26.8345      0.00000
     30      27.8077      0.00000
     31      29.2455      0.00000
     32      31.0873      0.00000

 k-point     3 :       0.2500   -0.0000    0.0000
  band No.  band energies     occupation 
      1      -8.9265      2.00000
      2      -7.8388      2.00000
      3      -5.9105      2.00000
      4      -5.8233      2.00000
      5      -5.6981      2.00000
      6      -5.6442      2.00000
      7      -5.6071      2.00000
      8      -5.5674      2.00000
      9      -5.5181      2.00000
     10      -5.4490      2.00000
     11      -5.3417      2.00000
     12      -3.5516      2.00000
     13       0.9037      2.00000
     14       2.4482      2.00000
     15       4.3076      2.00000
     16       6.7238      2.00000
     17       7.0532      2.00000
     18       8.1199      2.00000
     19      13.4922      0.00000
     20      14.0186      0.00000
     21      17.4029      0.00000
     22      17.8106      0.00000
     23      18.6721      0.00000
     24      19.6194      0.00000
     25      22.7633      0.00000
     26      22.8642      0.00000
     27      24.0131      0.00000
     28      25.7721      0.00000
     29      27.2387      0.00000
     30      28.0400      0.00000
     31      30.0015      0.00000
     32      30.4446      0.00000

 k-point     4 :       0.3750   -0.0000   -0.0000
  band No.  band energies     occupation 
      1      -8.1555      2.00000
      2      -7.5983      2.00000
      3      -5.8833      2.00000
      4      -5.7774      2.00000
      5      -5.7238      2.00000
      6      -5.6592      2.00000
      7      -5.6374      2.00000
      8      -5.5830      2.00000
      9      -5.4877      2.00000
     10      -5.3693      2.00000
     11      -5.2215      2.00000
     12      -3.8249      2.00000
     13       0.8502      2.00000
     14       2.2745      2.00000
     15       2.5549      2.00000
     16       5.7155      2.00000
     17       7.0550      2.00000
     18       8.1703      2.00000
     19      14.7378      0.00000
     20      15.4857      0.00000
     21      16.5625      0.00000
     22      17.1044      0.00000
     23      17.8850      0.00000
     24      18.4161      0.00000
     25      22.7254      0.00000
     26      23.6633      0.00000
     27      24.0784      0.00000
     28      26.3088      0.00000
     29      28.0987      0.00000
     30      28.6812      0.00000
     31      30.1666      0.00000
     32      30.8961      0.00000

 k-point     5 :       0.5000   -0.0000   -0.0000
  band No.  band energies     occupation 
      1      -7.7351      2.00000
      2      -7.5472      2.00000
      3      -5.8652      2.00000
      4      -5.7376      2.00000
      5      -5.6996      2.00000
      6      -5.6813      2.00000
      7      -5.6290      2.00000
      8      -5.6222      2.00000
      9      -5.4612      2.00000
     10      -5.3658      2.00000
     11      -4.7127      2.00000
     12      -4.5149      2.00000
     13       0.8493      2.00000
     14       1.3379      2.00000
     15       3.4398      2.00000
     16       4.5601      2.00000
     17       7.1979      2.00000
     18       8.1805      2.00000
     19      15.3860      0.00000
     20      15.8284      0.00000
     21      16.3535      0.00000
     22      17.3324      0.00000
     23      17.5290      0.00000
     24      17.7220      0.00000
     25      22.3291      0.00000
     26      22.9957      0.00000
     27      25.4120      0.00000
     28      25.6153      0.00000
     29      28.7227      0.00000
     30      28.9784      0.00000
     31      30.5319      0.00000
     32      31.3309      0.00000

 k-point     6 :      -0.3750    0.0000    0.0000
  band No.  band energies     occupation 
      1      -8.1555      2.00000
      2      -7.5983      2.00000
      3      -5.8833      2.00000
      4      -5.7774      2.00000
      5      -5.7238      2.00000
      6      -5.6592      2.00000
      7      -5.6374      2.00000
      8      -5.5830      2.00000
      9      -5.4877      2.00000
     10      -5.3693      2.00000
     11      -5.2215      2.00000
     12      -3.8249      2.00000
     13       0.8502      2.00000
     14       2.2745      2.00000
     15       2.5549      2.00000
     16       5.7155      2.00000
     17       7.0550      2.00000
     18       8.1703      2.00000
     19      14.7378      0.00000
     20      15.4857      0.00000
     21      16.5625      0.00000
     22      17.1044      0.00000
     23      17.8850      0.00000
     24      18.4161      0.00000
     25      22.7254      0.00000
     26      23.6633      0.00000
     27      24.0784      0.00000
     28      26.3088      0.00000
     29      28.0987      0.00000
     30      28.6812      0.00000
     31      30.1666      0.00000
     32      30.8961      0.00000

 k-point     7 :      -0.2500    0.0000   -0.0000
  band No.  band energies     occupation 
      1      -8.9265      2.00000
      2      -7.8388      2.00000
      3      -5.9105      2.00000
      4      -5.8233      2.00000
      5      -5.6981      2.00000
      6      -5.6442      2.00000
      7      -5.6071      2.00000
      8      -5.5674      2.00000
      9      -5.5181      2.00000
     10      -5.4490      2.00000
     11      -5.3417      2.00000
     12      -3.5516      2.00000
     13       0.9037      2.00000
     14       2.4482      2.00000
     15       4.3076      2.00000
     16       6.7238      2.00000
     17       7.0532      2.00000
     18       8.1199      2.00000
     19      13.4922      0.00000
     20      14.0186      0.00000
     21      17.4029      0.00000
     22      17.8106      0.00000
     23      18.6721      0.00000
     24      19.6194      0.00000
     25      22.7633      0.00000
     26      22.8642      0.00000
     27      24.0131      0.00000
     28      25.7721      0.00000
     29      27.2387      0.00000
     30      28.0400      0.00000
     31      30.0015      0.00000
     32      30.4446      0.00000

 k-point     8 :      -0.1250    0.0000    0.0000
  band No.  band energies     occupation 
      1      -9.5354      2.00000
      2      -8.0964      2.00000
      3      -5.9124      2.00000
      4      -5.8413      2.00000
      5      -5.7682      2.00000
      6      -5.6218      2.00000
      7      -5.6110      2.00000
      8      -5.5296      2.00000
      9      -5.4992      2.00000
     10      -5.4194      2.00000
     11      -5.3311      2.00000
     12      -3.6090      2.00000
     13       0.1984      2.00000
     14       4.2770      2.00000
     15       6.2494      2.00000
     16       6.6416      2.00000
     17       7.8022      2.00000
     18       8.1149      2.00000
     19      12.0251      0.00000
     20      12.3593      0.00000
     21      17.6914      0.00000
     22      19.0325      0.00000
     23      19.8868      0.00000
     24      21.0196      0.00000
     25      21.9302      0.00000
     26      22.6927      0.00000
     27      23.2771      0.00000
     28      24.8513      0.00000
     29      26.8345      0.00000
     30      27.8077      0.00000
     31      29.2455      0.00000
     32      31.0873      0.00000

 k-point     9 :       0.0000    0.1250    0.0000
  band No.  band energies     occupation 
      1      -9.5354      2.00000
      2      -8.0964      2.00000
      3      -5.9124      2.00000
      4      -5.8413      2.00000
      5      -5.7682      2.00000
      6      -5.6218      2.00000
      7      -5.6110      2.00000
      8      -5.5296      2.00000
      9      -5.4992      2.00000
     10      -5.4194      2.00000
     11      -5.3311      2.00000
     12      -3.6090      2.00000
     13       0.1984      2.00000
     14       4.2770      2.00000
     15       6.2494      2.00000
     16       6.6416      2.00000
     17       7.8022      2.00000
     18       8.1149      2.00000
     19      12.0251      0.00000
     20      12.3593      0.00000
     21      17.6914      0.00000
     22      19.0325      0.00000
     23      19.8868      0.00000
     24      21.0196      0.00000
     25      21.9302      0.00000
     26      22.6927      0.00000
     27      23.2771      0.00000
     28      24.8513      0.00000
     29      26.8345      0.00000
     30      27.8077      0.00000
     31      29.2455      0.00000
     32      31.0873      0.00000

 k-point    10 :       0.1250    0.1250    0.0000
  band No.  band energies     occupation 
      1      -9.2207      2.00000
      2      -7.9448      2.00000
      3      -5.8970      2.00000
      4      -5.7898      2.00000
      5      -5.7831      2.00000
      6      -5.6385      2.00000
      7      -5.6084      2.00000
      8      -5.5244      2.00000
      9      -5.5191      2.00000
     10      -5.4257      2.00000
     11      -5.3912      2.00000
     12      -3.6077      2.00000
     13       0.5518      2.00000
     14       3.6239      2.00000
     15       5.3737      2.00000
     16       5.6696      2.00000
     17       7.4202      2.00000
     18       7.6858      2.00000
     19      13.0786      0.00000
     20      13.8396      0.00000
     21      17.8681      0.00000
     22      18.5276      0.00000
     23      19.3844      0.00000
     24      20.0599      0.00000
     25      21.8805      0.00000
     26      23.1411      0.00000
     27      25.3799      0.00000
     28      25.5080      0.00000
     29      27.5156      0.00000
     30      28.7247      0.00000
     31      29.0033      0.00000
     32      30.9917      0.00000

 k-point    11 :       0.2500    0.1250   -0.0000
  band No.  band energies     occupation 
      1      -8.5821      2.00000
      2      -7.7117      2.00000
      3      -5.8339      2.00000
      4      -5.7614      2.00000
      5      -5.7146      2.00000
      6      -5.6598      2.00000
      7      -5.6161      2.00000
      8      -5.5473      2.00000
      9      -5.5448      2.00000
     10      -5.4580      2.00000
     11      -5.3823      2.00000
     12      -3.5948      2.00000
     13       1.2196      2.00000
     14       2.4732      2.00000
     15       3.8905      2.00000
     16       5.1719      2.00000
     17       6.6002      2.00000
     18       7.3073      2.00000
     19      14.3797      0.00000
     20      15.4589      0.00000
     21      17.0096      0.00000
     22      18.1334      0.00000
     23      18.5410      0.00000
     24      20.3193      0.00000
     25      21.4953      0.00000
     26      23.1928      0.00000
     27      23.8837      0.00000
     28      26.2437      0.00000
     29      27.7705      0.00000
     30      29.3553      0.00000
     31      31.7347      0.00000
     32      32.8098      0.00000

 k-point    12 :       0.3750    0.1250   -0.0000
  band No.  band energies     occupation 
      1      -7.9293      2.00000
      2      -7.5708      2.00000
      3      -5.8471      2.00000
      4      -5.7261      2.00000
      5      -5.7116      2.00000
      6      -5.6554      2.00000
      7      -5.6136      2.00000
      8      -5.5588      2.00000
      9      -5.4819      2.00000
     10      -5.3763      2.00000
     11      -5.1357      2.00000
     12      -3.8482      2.00000
     13       0.9903      2.00000
     14       2.2434      2.00000
     15       2.9237      2.00000
     16       5.3431      2.00000
     17       5.5728      2.00000
     18       7.3596      2.00000
     19      15.1117      0.00000
     20      15.8778      0.00000
     21      16.5388      0.00000
     22      17.5791      0.00000
     23      17.8177      0.00000
     24      19.4144      0.00000
     25      21.7804      0.00000
     26      22.2508      0.00000
     27      23.5382      0.00000
     28      27.5827      0.00000
     29      29.4469      0.00000
     30      30.2334      0.00000
     31      30.8265      0.00000
     32      31.4375      0.00000

 k-point    13 :       0.5000    0.1250   -0.0000
  band No.  band energies     occupation 
      1      -7.7721      2.00000
      2      -7.5892      2.00000
      3      -5.8561      2.00000
      4      -5.7884      2.00000
      5      -5.7595      2.00000
      6      -5.6770      2.00000
      7      -5.5601      2.00000
      8      -5.5493      2.00000
      9      -5.4411      2.00000
     10      -5.3642      2.00000
     11      -4.5780      2.00000
     12      -4.1814      2.00000
     13       0.9721      2.00000
     14       1.5660      2.00000
     15       3.4869      2.00000
     16       4.6923      2.00000
     17       6.2767      2.00000
     18       7.4770      2.00000
     19      15.1289      0.00000
     20      15.7383      0.00000
     21      16.2921      0.00000
     22      16.8671      0.00000
     23      17.3044      0.00000
     24      17.6598      0.00000
     25      22.2940      0.00000
     26      23.1402      0.00000
     27      24.4653      0.00000
     28      26.8841      0.00000
     29      28.2261      0.00000
     30      29.8335      0.00000
     31      30.9302      0.00000
     32      32.1879      0.00000

 k-point    14 :      -0.3750    0.1250   -0.0000
  band No.  band energies     occupation 
      1      -8.2763      2.00000
      2      -7.6784      2.00000
      3      -5.8800      2.00000
      4      -5.7913      2.00000
      5      -5.7791      2.00000
      6      -5.6632      2.00000
      7      -5.5848      2.00000
      8      -5.5232      2.00000
      9      -5.4771      2.00000
     10      -5.3617      2.00000
     11      -5.1200      2.00000
     12      -3.4338      2.00000
     13       1.1201      2.00000
     14       2.2899      2.00000
     15       2.9039      2.00000
     16       5.9404      2.00000
     17       6.7908      2.00000
     18       7.4355      2.00000
     19      14.4873      0.00000
     20      14.6166      0.00000
     21      16.4747      0.00000
     22      17.0445      0.00000
     23      17.2098      0.00000
     24      17.6870      0.00000
     25      22.5109      0.00000
     26      23.4421      0.00000
     27      24.9479      0.00000
     28      25.8495      0.00000
     29      26.9323      0.00000
     30      29.3493      0.00000
     31      30.0692      0.00000
     32      32.5336      0.00000

 k-point    15 :      -0.2500    0.1250    0.0000
  band No.  band energies     occupation 
      1      -8.9542      2.00000
      2      -7.8920      2.00000
      3      -5.8746      2.00000
      4      -5.7932      2.00000
      5      -5.7061      2.00000
      6      -5.6517      2.00000
      7      -5.6253      2.00000
      8      -5.5521      2.00000
      9      -5.4983      2.00000
     10      -5.4479      2.00000
     11      -5.3080      2.00000
     12      -3.3362      2.00000
     13       0.9623      2.00000
     14       2.9542      2.00000
     15       4.8232      2.00000
     16       6.2692      2.00000
     17       6.9406      2.00000
     18       7.5909      2.00000
     19      13.4004      0.00000
     20      13.6409      0.00000
     21      17.5777      0.00000
     22      17.8375      0.00000
     23      18.2608      0.00000
     24      18.6558      0.00000
     25      21.2228      0.00000
     26      21.9835      0.00000
     27      24.1447      0.00000
     28      25.3759      0.00000
     29      27.5924      0.00000
     30      28.7896      0.00000
     31      29.2269      0.00000
     32      32.7405      0.00000

 k-point    16 :      -0.1250    0.1250    0.0000
  band No.  band energies     occupation 
      1      -9.4344      2.00000
      2      -8.0714      2.00000
      3      -5.8655      2.00000
      4      -5.8351      2.00000
      5      -5.7343      2.00000
      6      -5.6339      2.00000
      7      -5.6237      2.00000
      8      -5.5551      2.00000
      9      -5.5074      2.00000
     10      -5.4547      2.00000
     11      -5.3053      2.00000
     12      -3.4988      2.00000
     13       0.3467      2.00000
     14       4.5107      2.00000
     15       6.0333      2.00000
     16       6.7481      2.00000
     17       6.9238      2.00000
     18       7.8676      2.00000
     19      12.3857      0.00000
     20      12.7165      0.00000
     21      18.2787      0.00000
     22      18.6953      0.00000
     23      20.2011      0.00000
     24      20.2237      0.00000
     25      20.5028      0.00000
     26      20.9071      0.00000
     27      23.1720      0.00000
     28      24.4313      0.00000
     29      28.2261      0.00000
     30      28.5719      0.00000
     31      29.1761      0.00000
     32      30.1969      0.00000

 k-point    17 :       0.0000    0.2500    0.0000
  band No.  band energies     occupation 
      1      -8.9265      2.00000
      2      -7.8388      2.00000
      3      -5.9105      2.00000
      4      -5.8233      2.00000
      5      -5.6981      2.00000
      6      -5.6442      2.00000
      7      -5.6071      2.00000
      8      -5.5674      2.00000
      9      -5.5181      2.00000
     10      -5.4490      2.00000
     11      -5.3417      2.00000
     12      -3.5516      2.00000
     13       0.9037      2.00000
     14       2.4482      2.00000
     15       4.3076      2.00000
     16       6.7238      2.00000
     17       7.0532      2.00000
     18       8.1199      2.00000
     19      13.4922      0.00000
     20      14.0186      0.00000
     21      17.4029      0.00000
     22      17.8106      0.00000
     23      18.6721      0.00000
     24      19.6194      0.00000
     25      22.7633      0.00000
     26      22.8642      0.00000
     27      24.0131      0.00000
     28      25.7721      0.00000
     29      27.2387      0.00000
     30      28.0400      0.00000
     31      30.0015      0.00000
     32      30.4446      0.00000

 k-point    18 :       0.1250    0.2500   -0.0000
  band No.  band energies     occupation 
      1      -8.5821      2.00000
      2      -7.7117      2.00000
      3      -5.8339      2.00000
      4      -5.7614      2.00000
      5      -5.7146      2.00000
      6      -5.6598      2.00000
      7      -5.6161      2.00000
      8      -5.5473      2.00000
      9      -5.5448      2.00000
     10      -5.4580      2.00000
     11      -5.3823      2.00000
     12      -3.5948      2.00000
     13       1.2196      2.00000
     14       2.4732      2.00000
     15       3.8905      2.00000
     16       5.1719      2.00000
     17       6.6002      2.00000
     18       7.3073      2.00000
     19      14.3797      0.00000
     20      15.4589      0.00000
     21      17.0096      0.00000
     22      18.1334      0.00000
     23      18.5410      0.00000
     24      20.3193      0.00000
     25      21.4953      0.00000
     26      23.1928      0.00000
     27      23.8837      0.00000
     28      26.2437      0.00000
     29      27.7705      0.00000
     30      29.3553      0.00000
     31      31.7347      0.00000
     32      32.8098      0.00000

 k-point    19 :       0.2500    0.2500   -0.0000
  band No.  band energies     occupation 
      1      -8.0875      2.00000
      2      -7.6121      2.00000
      3      -5.8378      2.00000
      4      -5.7108      2.00000
      5      -5.6658      2.00000
      6      -5.6179      2.00000
      7      -5.5778      2.00000
      8      -5.5653      2.00000
      9      -5.4806      2.00000
     10      -5.3980      2.00000
     11      -5.3281      2.00000
     12      -3.4848      2.00000
     13       1.6809      2.00000
     14       3.1560      2.00000
     15       3.2239      2.00000
     16       3.3944      2.00000
     17       5.9803      2.00000
     18       6.1184      2.00000
     19      15.0897      0.00000
     20      15.4936      0.00000
     21      16.4694      0.00000
     22      18.0116      0.00000
     23      18.7001      0.00000
     24      20.2010      0.00000
     25      21.3220      0.00000
     26      22.1916      0.00000
     27      23.2399      0.00000
     28      26.9998      0.00000
     29      30.4440      0.00000
     30      30.5049      0.00000
     31      31.6299      0.00000
     32      32.9339      0.00000

 k-point    20 :       0.3750    0.2500   -0.0000
  band No.  band energies     occupation 
      1      -7.7609      2.00000
      2      -7.6417      2.00000
      3      -5.8996      2.00000
      4      -5.7994      2.00000
      5      -5.6543      2.00000
      6      -5.6033      2.00000
      7      -5.5356      2.00000
      8      -5.4928      2.00000
      9      -5.4200      2.00000
     10      -5.3793      2.00000
     11      -4.5511      2.00000
     12      -3.5260      2.00000
     13       1.4944      2.00000
     14       2.3240      2.00000
     15       3.0573      2.00000
     16       4.3241      2.00000
     17       5.0254      2.00000
     18       5.8521      2.00000
     19      14.1967      0.00000
     20      14.7328      0.00000
     21      15.3811      0.00000
     22      17.3496      0.00000
     23      18.7269      0.00000
     24      19.7819      0.00000
     25      21.6077      0.00000
     26      22.5847      0.00000
     27      24.2386      0.00000
     28      27.7859      0.00000
     29      28.7818      0.00000
     30      29.7778      0.00000
     31      32.6794      0.00000
     32      32.8963      0.00000

 k-point    21 :       0.5000    0.2500    0.0000
  band No.  band energies     occupation 
      1      -7.8691      2.00000
      2      -7.6804      2.00000
      3      -5.9136      2.00000
      4      -5.8579      2.00000
      5      -5.6388      2.00000
      6      -5.6176      2.00000
      7      -5.5371      2.00000
      8      -5.4589      2.00000
      9      -5.3816      2.00000
     10      -5.3459      2.00000
     11      -4.1731      2.00000
     12      -3.3935      2.00000
     13       1.3301      2.00000
     14       1.9692      2.00000
     15       3.6115      2.00000
     16       4.1962      2.00000
     17       5.6498      2.00000
     18       6.1063      2.00000
     19      12.7233      0.00000
     20      13.6238      0.00000
     21      15.0248      0.00000
     22      16.8631      0.00000
     23      18.3889      0.00000
     24      19.6739      0.00000
     25      22.5608      0.00000
     26      22.8093      0.00000
     27      24.3831      0.00000
     28      26.4815      0.00000
     29      28.3238      0.00000
     30      30.5053      0.00000
     31      32.8114      0.00000
     32      33.7389      0.00000

 k-point    22 :      -0.3750    0.2500    0.0000
  band No.  band energies     occupation 
      1      -8.2478      2.00000
      2      -7.7521      2.00000
      3      -5.8805      2.00000
      4      -5.8488      2.00000
      5      -5.6570      2.00000
      6      -5.6181      2.00000
      7      -5.5472      2.00000
      8      -5.4766      2.00000
      9      -5.4198      2.00000
     10      -5.3281      2.00000
     11      -4.8791      2.00000
     12      -2.8593      2.00000
     13       1.7392      2.00000
     14       2.5709      2.00000
     15       3.1630      2.00000
     16       5.1497      2.00000
     17       5.6327      2.00000
     18       6.9217      2.00000
     19      12.2568      0.00000
     20      12.7749      0.00000
     21      15.8322      0.00000
     22      16.9192      0.00000
     23      17.9367      0.00000
     24      19.6697      0.00000
     25      21.9613      0.00000
     26      22.2815      0.00000
     27      24.6485      0.00000
     28      26.1055      0.00000
     29      27.2248      0.00000
     30      30.8176      0.00000
     31      32.7573      0.00000
     32      33.6585      0.00000

 k-point    23 :      -0.2500    0.2500    0.0000
  band No.  band energies     occupation 
      1      -8.6787      2.00000
      2      -7.8479      2.00000
      3      -5.8384      2.00000
      4      -5.7886      2.00000
      5      -5.7111      2.00000
      6      -5.5997      2.00000
      7      -5.5796      2.00000
      8      -5.5251      2.00000
      9      -5.5215      2.00000
     10      -5.3154      2.00000
     11      -5.3063      2.00000
     12      -3.0258      2.00000
     13       1.4483      2.00000
     14       3.2450      2.00000
     15       4.6118      2.00000
     16       5.0801      2.00000
     17       5.8620      2.00000
     18       7.3835      2.00000
     19      12.8820      0.00000
     20      13.1130      0.00000
     21      16.9002      0.00000
     22      17.6852      0.00000
     23      17.7046      0.00000
     24      19.8121      0.00000
     25      20.4771      0.00000
     26      21.0839      0.00000
     27      25.2474      0.00000
     28      25.7292      0.00000
     29      26.1044      0.00000
     30      29.9976      0.00000
     31      32.7525      0.00000
     32      33.2931      0.00000

 k-point    24 :      -0.1250    0.2500   -0.0000
  band No.  band energies     occupation 
      1      -8.9542      2.00000
      2      -7.8920      2.00000
      3      -5.8746      2.00000
      4      -5.7932      2.00000
      5      -5.7061      2.00000
      6      -5.6517      2.00000
      7      -5.6253      2.00000
      8      -5.5521      2.00000
      9      -5.4983      2.00000
     10      -5.4479      2.00000
     11      -5.3080      2.00000
     12      -3.3362      2.00000
     13       0.9623      2.00000
     14       2.9542      2.00000
     15       4.8232      2.00000
     16       6.2692      2.00000
     17       6.9406      2.00000
     18       7.5909      2.00000
     19      13.4004      0.00000
     20      13.6409      0.00000
     21      17.5777      0.00000
     22      17.8375      0.00000
     23      18.2608      0.00000
     24      18.6558      0.00000
     25      21.2228      0.00000
     26      21.9835      0.00000
     27      24.1447      0.00000
     28      25.3759      0.00000
     29      27.5924      0.00000
     30      28.7896      0.00000
     31      29.2269      0.00000
     32      32.7405      0.00000

 k-point    25 :      -0.0000    0.3750   -0.0000
  band No.  band energies     occupation 
      1      -8.1555      2.00000
      2      -7.5983      2.00000
      3      -5.8833      2.00000
      4      -5.7774      2.00000
      5      -5.7238      2.00000
      6      -5.6592      2.00000
      7      -5.6374      2.00000
      8      -5.5830      2.00000
      9      -5.4877      2.00000
     10      -5.3693      2.00000
     11      -5.2215      2.00000
     12      -3.8249      2.00000
     13       0.8502      2.00000
     14       2.2745      2.00000
     15       2.5549      2.00000
     16       5.7155      2.00000
     17       7.0550      2.00000
     18       8.1703      2.00000
     19      14.7378      0.00000
     20      15.4857      0.00000
     21      16.5625      0.00000
     22      17.1044      0.00000
     23      17.8850      0.00000
     24      18.4161      0.00000
     25      22.7254      0.00000
     26      23.6633      0.00000
     27      24.0784      0.00000
     28      26.3088      0.00000
     29      28.0987      0.00000
     30      28.6812      0.00000
     31      30.1666      0.00000
     32      30.8961      0.00000

 k-point    26 :       0.1250    0.3750   -0.0000
  band No.  band energies     occupation 
      1      -7.9293      2.00000
      2      -7.5708      2.00000
      3      -5.8471      2.00000
      4      -5.7261      2.00000
      5      -5.7116      2.00000
      6      -5.6554      2.00000
      7      -5.6136      2.00000
      8      -5.5588      2.00000
      9      -5.4819      2.00000
     10      -5.3763      2.00000
     11      -5.1357      2.00000
     12      -3.8482      2.00000
     13       0.9903      2.00000
     14       2.2434      2.00000
     15       2.9237      2.00000
     16       5.3431      2.00000
     17       5.5728      2.00000
     18       7.3596      2.00000
     19      15.1117      0.00000
     20      15.8778      0.00000
     21      16.5388      0.00000
     22      17.5791      0.00000
     23      17.8177      0.00000
     24      19.4144      0.00000
     25      21.7804      0.00000
     26      22.2508      0.00000
     27      23.5382      0.00000
     28      27.5827      0.00000
     29      29.4469      0.00000
     30      30.2334      0.00000
     31      30.8265      0.00000
     32      31.4375      0.00000

 k-point    27 :       0.2500    0.3750   -0.0000
  band No.  band energies     occupation 
      1      -7.7609      2.00000
      2      -7.6417      2.00000
      3      -5.8996      2.00000
      4      -5.7994      2.00000
      5      -5.6543      2.00000
      6      -5.6033      2.00000
      7      -5.5356      2.00000
      8      -5.4928      2.00000
      9      -5.4200      2.00000
     10      -5.3793      2.00000
     11      -4.5511      2.00000
     12      -3.5260      2.00000
     13       1.4944      2.00000
     14       2.3240      2.00000
     15       3.0573      2.00000
     16       4.3241      2.00000
     17       5.0254      2.00000
     18       5.8521      2.00000
     19      14.1967      0.00000
     20      14.7328      0.00000
     21      15.3811      0.00000
     22      17.3496      0.00000
     23      18.7269      0.00000
     24      19.7819      0.00000
     25      21.6077      0.00000
     26      22.5847      0.00000
     27      24.2386      0.00000
     28      27.7859      0.00000
     29      28.7818      0.00000
     30      29.7778      0.00000
     31      32.6794      0.00000
     32      32.8963      0.00000

 k-point    28 :       0.3750    0.3750    0.0000
  band No.  band energies     occupation 
      1      -7.7923      2.00000
      2      -7.7314      2.00000
      3      -5.9370      2.00000
      4      -5.8753      2.00000
      5      -5.6252      2.00000
      6      -5.5552      2.00000
      7      -5.5019      2.00000
      8      -5.4153      2.00000
      9      -5.3445      2.00000
     10      -5.3224      2.00000
     11      -3.5311      2.00000
     12      -3.2171      2.00000
     13       1.3630      2.00000
     14       2.1754      2.00000
     15       2.9155      2.00000
     16       4.6609      2.00000
     17       4.7581      2.00000
     18       5.3088      2.00000
     19      11.9812      0.00000
     20      13.0472      0.00000
     21      13.9818      0.00000
     22      16.7506      0.00000
     23      19.4962      0.00000
     24      20.7741      0.00000
     25      22.1912      0.00000
     26      23.2743      0.00000
     27      24.4039      0.00000
     28      27.1369      0.00000
     29      28.9542      0.00000
     30      30.1911      0.00000
     31      31.6115      0.00000
     32      34.3445      0.00000

 k-point    29 :       0.5000    0.3750    0.0000
  band No.  band energies     occupation 
      1      -7.9641      2.00000
      2      -7.7673      2.00000
      3      -5.9313      2.00000
      4      -5.9134      2.00000
      5      -5.5960      2.00000
      6      -5.5762      2.00000
      7      -5.4908      2.00000
      8      -5.3986      2.00000
      9      -5.2759      2.00000
     10      -5.2681      2.00000
     11      -3.5527      2.00000
     12      -2.5458      2.00000
     13       1.3195      2.00000
     14       1.8040      2.00000
     15       3.6774      2.00000
     16       4.2169      2.00000
     17       4.8020      2.00000
     18       6.3383      2.00000
     19      10.3618      0.00000
     20      11.4295      0.00000
     21      13.9008      0.00000
     22      16.2735      0.00000
     23      19.4903      0.00000
     24      21.5686      0.00000
     25      22.3579      0.00000
     26      22.8306      0.00000
     27      24.2436      0.00000
     28      27.8815      0.00000
     29      28.2168      0.00000
     30      31.3780      0.00000
     31      31.6197      0.00000
     32      33.6956      0.00000

 k-point    30 :      -0.3750    0.3750    0.0000
  band No.  band energies     occupation 
      1      -8.1251      2.00000
      2      -7.7841      2.00000
      3      -5.9034      2.00000
      4      -5.8974      2.00000
      5      -5.6212      2.00000
      6      -5.5782      2.00000
      7      -5.5014      2.00000
      8      -5.4133      2.00000
      9      -5.3305      2.00000
     10      -5.2664      2.00000
     11      -4.3192      2.00000
     12      -2.3762      2.00000
     13       2.1411      2.00000
     14       2.2952      2.00000
     15       2.8463      2.00000
     16       4.6465      2.00000
     17       5.0501      2.00000
     18       6.8636      2.00000
     19      10.5160      0.00000
     20      11.2483      0.00000
     21      14.6913      0.00000
     22      16.3751      0.00000
     23      18.8792      0.00000
     24      21.5698      0.00000
     25      21.8315      0.00000
     26      22.4048      0.00000
     27      24.1767      0.00000
     28      27.5611      0.00000
     29      27.5673      0.00000
     30      32.2540      0.00000
     31      32.4890      0.00000
     32      32.9099      0.00000

 k-point    31 :      -0.2500    0.3750   -0.0000
  band No.  band energies     occupation 
      1      -8.2478      2.00000
      2      -7.7521      2.00000
      3      -5.8805      2.00000
      4      -5.8488      2.00000
      5      -5.6570      2.00000
      6      -5.6181      2.00000
      7      -5.5472      2.00000
      8      -5.4766      2.00000
      9      -5.4198      2.00000
     10      -5.3281      2.00000
     11      -4.8791      2.00000
     12      -2.8593      2.00000
     13       1.7392      2.00000
     14       2.5709      2.00000
     15       3.1630      2.00000
     16       5.1497      2.00000
     17       5.6327      2.00000
     18       6.9217      2.00000
     19      12.2568      0.00000
     20      12.7749      0.00000
     21      15.8322      0.00000
     22      16.9192      0.00000
     23      17.9367      0.00000
     24      19.6697      0.00000
     25      21.9613      0.00000
     26      22.2815      0.00000
     27      24.6485      0.00000
     28      26.1055      0.00000
     29      27.2248      0.00000
     30      30.8176      0.00000
     31      32.7573      0.00000
     32      33.6585      0.00000

 k-point    32 :      -0.1250    0.3750    0.0000
  band No.  band energies     occupation 
      1      -8.2763      2.00000
      2      -7.6784      2.00000
      3      -5.8800      2.00000
      4      -5.7913      2.00000
      5      -5.7791      2.00000
      6      -5.6632      2.00000
      7      -5.5848      2.00000
      8      -5.5232      2.00000
      9      -5.4771      2.00000
     10      -5.3617      2.00000
     11      -5.1200      2.00000
     12      -3.4338      2.00000
     13       1.1201      2.00000
     14       2.2899      2.00000
     15       2.9039      2.00000
     16       5.9404      2.00000
     17       6.7908      2.00000
     18       7.4355      2.00000
     19      14.4873      0.00000
     20      14.6166      0.00000
     21      16.4747      0.00000
     22      17.0445      0.00000
     23      17.2098      0.00000
     24      17.6870      0.00000
     25      22.5109      0.00000
     26      23.4421      0.00000
     27      24.9479      0.00000
     28      25.8495      0.00000
     29      26.9323      0.00000
     30      29.3493      0.00000
     31      30.0692      0.00000
     32      32.5336      0.00000

 k-point    33 :       0.0000    0.5000   -0.0000
  band No.  band energies     occupation 
      1      -7.7351      2.00000
      2      -7.5472      2.00000
      3      -5.8652      2.00000
      4      -5.7376      2.00000
      5      -5.6996      2.00000
      6      -5.6813      2.00000
      7      -5.6290      2.00000
      8      -5.6222      2.00000
      9      -5.4612      2.00000
     10      -5.3658      2.00000
     11      -4.7127      2.00000
     12      -4.5149      2.00000
     13       0.8493      2.00000
     14       1.3379      2.00000
     15       3.4398      2.00000
     16       4.5601      2.00000
     17       7.1979      2.00000
     18       8.1805      2.00000
     19      15.3860      0.00000
     20      15.8284      0.00000
     21      16.3535      0.00000
     22      17.3324      0.00000
     23      17.5290      0.00000
     24      17.7220      0.00000
     25      22.3291      0.00000
     26      22.9957      0.00000
     27      25.4120      0.00000
     28      25.6153      0.00000
     29      28.7227      0.00000
     30      28.9784      0.00000
     31      30.5319      0.00000
     32      31.3309      0.00000

 k-point    34 :       0.1250    0.5000   -0.0000
  band No.  band energies     occupation 
      1      -7.7721      2.00000
      2      -7.5892      2.00000
      3      -5.8561      2.00000
      4      -5.7884      2.00000
      5      -5.7595      2.00000
      6      -5.6770      2.00000
      7      -5.5601      2.00000
      8      -5.5493      2.00000
      9      -5.4411      2.00000
     10      -5.3642      2.00000
     11      -4.5780      2.00000
     12      -4.1814      2.00000
     13       0.9721      2.00000
     14       1.5660      2.00000
     15       3.4869      2.00000
     16       4.6923      2.00000
     17       6.2767      2.00000
     18       7.4770      2.00000
     19      15.1289      0.00000
     20      15.7383      0.00000
     21      16.2921      0.00000
     22      16.8671      0.00000
     23      17.3044      0.00000
     24      17.6598      0.00000
     25      22.2940      0.00000
     26      23.1402      0.00000
     27      24.4653      0.00000
     28      26.8841      0.00000
     29      28.2261      0.00000
     30      29.8335      0.00000
     31      30.9302      0.00000
     32      32.1879      0.00000

 k-point    35 :       0.2500    0.5000    0.0000
  band No.  band energies     occupation 
      1      -7.8691      2.00000
      2      -7.6804      2.00000
      3      -5.9136      2.00000
      4      -5.8579      2.00000
      5      -5.6388      2.00000
      6      -5.6176      2.00000
      7      -5.5371      2.00000
      8      -5.4589      2.00000
      9      -5.3816      2.00000
     10      -5.3459      2.00000
     11      -4.1731      2.00000
     12      -3.3935      2.00000
     13       1.3301      2.00000
     14       1.9692      2.00000
     15       3.6115      2.00000
     16       4.1962      2.00000
     17       5.6498      2.00000
     18       6.1063      2.00000
     19      12.7233      0.00000
     20      13.6238      0.00000
     21      15.0248      0.00000
     22      16.8631      0.00000
     23      18.3889      0.00000
     24      19.6739      0.00000
     25      22.5608      0.00000
     26      22.8093      0.00000
     27      24.3831      0.00000
     28      26.4815      0.00000
     29      28.3238      0.00000
     30      30.5053      0.00000
     31      32.8114      0.00000
     32      33.7389      0.00000

 k-point    36 :       0.3750    0.5000    0.0000
  band No.  band energies     occupation 
      1      -7.9641      2.00000
      2      -7.7673      2.00000
      3      -5.9313      2.00000
      4      -5.9134      2.00000
      5      -5.5960      2.00000
      6      -5.5762      2.00000
      7      -5.4908      2.00000
      8      -5.3986      2.00000
      9      -5.2759      2.00000
     10      -5.2681      2.00000
     11      -3.5527      2.00000
     12      -2.5458      2.00000
     13       1.3195      2.00000
     14       1.8040      2.00000
     15       3.6774      2.00000
     16       4.2169      2.00000
     17       4.8020      2.00000
     18       6.3383      2.00000
     19      10.3618      0.00000
     20      11.4295      0.00000
     21      13.9008      0.00000
     22      16.2735      0.00000
     23      19.4903      0.00000
     24      21.5686      0.00000
     25      22.3579      0.00000
     26      22.8306      0.00000
     27      24.2436      0.00000
     28      27.8815      0.00000
     29      28.2168      0.00000
     30      31.3780      0.00000
     31      31.6197      0.00000
     32      33.6956      0.00000

 k-point    37 :       0.5000    0.5000    0.0000
  band No.  band energies     occupation 
      1      -8.0013      2.00000
      2      -7.8030      2.00000
      3      -5.9434      2.00000
      4      -5.9275      2.00000
      5      -5.5774      2.00000
      6      -5.5758      2.00000
      7      -5.4772      2.00000
      8      -5.3859      2.00000
      9      -5.2245      2.00000
     10      -5.2090      2.00000
     11      -3.1252      2.00000
     12      -2.2052      2.00000
     13       0.8627      2.00000
     14       1.7085      2.00000
     15       3.9092      2.00000
     16       4.3373      2.00000
     17       4.7279      2.00000
     18       6.5774      2.00000
     19       9.3563      0.00000
     20      10.4197      0.00000
     21      13.4724      0.00000
     22      15.9288      0.00000
     23      19.8860      0.00000
     24      22.0656      0.00000
     25      22.2590      0.00000
     26      22.7648      0.00000
     27      24.7249      0.00000
     28      28.1656      0.00000
     29      28.6159      0.00000
     30      31.0879      0.00000
     31      31.8323      0.00000
     32      32.8641      0.00000

 k-point    38 :      -0.3750    0.5000   -0.0000
  band No.  band energies     occupation 
      1      -7.9641      2.00000
      2      -7.7673      2.00000
      3      -5.9313      2.00000
      4      -5.9134      2.00000
      5      -5.5960      2.00000
      6      -5.5762      2.00000
      7      -5.4908      2.00000
      8      -5.3986      2.00000
      9      -5.2759      2.00000
     10      -5.2681      2.00000
     11      -3.5527      2.00000
     12      -2.5458      2.00000
     13       1.3195      2.00000
     14       1.8040      2.00000
     15       3.6774      2.00000
     16       4.2169      2.00000
     17       4.8020      2.00000
     18       6.3383      2.00000
     19      10.3618      0.00000
     20      11.4295      0.00000
     21      13.9008      0.00000
     22      16.2735      0.00000
     23      19.4903      0.00000
     24      21.5686      0.00000
     25      22.3579      0.00000
     26      22.8306      0.00000
     27      24.2436      0.00000
     28      27.8815      0.00000
     29      28.2168      0.00000
     30      31.3780      0.00000
     31      31.6197      0.00000
     32      33.6956      0.00000

 k-point    39 :      -0.2500    0.5000    0.0000
  band No.  band energies     occupation 
      1      -7.8691      2.00000
      2      -7.6804      2.00000
      3      -5.9136      2.00000
      4      -5.8579      2.00000
      5      -5.6388      2.00000
      6      -5.6176      2.00000
      7      -5.5371      2.00000
      8      -5.4589      2.00000
      9      -5.3816      2.00000
     10      -5.3459      2.00000
     11      -4.1731      2.00000
     12      -3.3935      2.00000
     13       1.3301      2.00000
     14       1.9692      2.00000
     15       3.6115      2.00000
     16       4.1962      2.00000
     17       5.6498      2.00000
     18       6.1063      2.00000
     19      12.7233      0.00000
     20      13.6238      0.00000
     21      15.0248      0.00000
     22      16.8631      0.00000
     23      18.3889      0.00000
     24      19.6739      0.00000
     25      22.5608      0.00000
     26      22.8093      0.00000
     27      24.3831      0.00000
     28      26.4815      0.00000
     29      28.3238      0.00000
     30      30.5053      0.00000
     31      32.8114      0.00000
     32      33.7389      0.00000

 k-point    40 :      -0.1250    0.5000   -0.0000
  band No.  band energies     occupation 
      1      -7.7721      2.00000
      2      -7.5892      2.00000
      3      -5.8561      2.00000
      4      -5.7884      2.00000
      5      -5.7595      2.00000
      6      -5.6770      2.00000
      7      -5.5601      2.00000
      8      -5.5493      2.00000
      9      -5.4411      2.00000
     10      -5.3642      2.00000
     11      -4.5780      2.00000
     12      -4.1814      2.00000
     13       0.9721      2.00000
     14       1.5660      2.00000
     15       3.4869      2.00000
     16       4.6923      2.00000
     17       6.2767      2.00000
     18       7.4770      2.00000
     19      15.1289      0.00000
     20      15.7383      0.00000
     21      16.2921      0.00000
     22      16.8671      0.00000
     23      17.3044      0.00000
     24      17.6598      0.00000
     25      22.2940      0.00000
     26      23.1402      0.00000
     27      24.4653      0.00000
     28      26.8841      0.00000
     29      28.2261      0.00000
     30      29.8335      0.00000
     31      30.9302      0.00000
     32      32.1879      0.00000

 k-point    41 :       0.0000   -0.3750    0.0000
  band No.  band energies     occupation 
      1      -8.1555      2.00000
      2      -7.5983      2.00000
      3      -5.8833      2.00000
      4      -5.7774      2.00000
      5      -5.7238      2.00000
      6      -5.6592      2.00000
      7      -5.6374      2.00000
      8      -5.5830      2.00000
      9      -5.4877      2.00000
     10      -5.3693      2.00000
     11      -5.2215      2.00000
     12      -3.8249      2.00000
     13       0.8502      2.00000
     14       2.2745      2.00000
     15       2.5549      2.00000
     16       5.7155      2.00000
     17       7.0550      2.00000
     18       8.1703      2.00000
     19      14.7378      0.00000
     20      15.4857      0.00000
     21      16.5625      0.00000
     22      17.1044      0.00000
     23      17.8850      0.00000
     24      18.4161      0.00000
     25      22.7254      0.00000
     26      23.6633      0.00000
     27      24.0784      0.00000
     28      26.3088      0.00000
     29      28.0987      0.00000
     30      28.6812      0.00000
     31      30.1666      0.00000
     32      30.8961      0.00000

 k-point    42 :       0.1250   -0.3750   -0.0000
  band No.  band energies     occupation 
      1      -8.2763      2.00000
      2      -7.6784      2.00000
      3      -5.8800      2.00000
      4      -5.7913      2.00000
      5      -5.7791      2.00000
      6      -5.6632      2.00000
      7      -5.5848      2.00000
      8      -5.5232      2.00000
      9      -5.4771      2.00000
     10      -5.3617      2.00000
     11      -5.1200      2.00000
     12      -3.4338      2.00000
     13       1.1201      2.00000
     14       2.2899      2.00000
     15       2.9039      2.00000
     16       5.9404      2.00000
     17       6.7908      2.00000
     18       7.4355      2.00000
     19      14.4873      0.00000
     20      14.6166      0.00000
     21      16.4747      0.00000
     22      17.0445      0.00000
     23      17.2098      0.00000
     24      17.6870      0.00000
     25      22.5109      0.00000
     26      23.4421      0.00000
     27      24.9479      0.00000
     28      25.8495      0.00000
     29      26.9323      0.00000
     30      29.3493      0.00000
     31      30.0692      0.00000
     32      32.5336      0.00000

 k-point    43 :       0.2500   -0.3750    0.0000
  band No.  band energies     occupation 
      1      -8.2478      2.00000
      2      -7.7521      2.00000
      3      -5.8805      2.00000
      4      -5.8488      2.00000
      5      -5.6570      2.00000
      6      -5.6181      2.00000
      7      -5.5472      2.00000
      8      -5.4766      2.00000
      9      -5.4198      2.00000
     10      -5.3281      2.00000
     11      -4.8791      2.00000
     12      -2.8593      2.00000
     13       1.7392      2.00000
     14       2.5709      2.00000
     15       3.1630      2.00000
     16       5.1497      2.00000
     17       5.6327      2.00000
     18       6.9217      2.00000
     19      12.2568      0.00000
     20      12.7749      0.00000
     21      15.8322      0.00000
     22      16.9192      0.00000
     23      17.9367      0.00000
     24      19.6697      0.00000
     25      21.9613      0.00000
     26      22.2815      0.00000
     27      24.6485      0.00000
     28      26.1055      0.00000
     29      27.2248      0.00000
     30      30.8176      0.00000
     31      32.7573      0.00000
     32      33.6585      0.00000

 k-point    44 :       0.3750   -0.3750    0.0000
  band No.  band energies     occupation 
      1      -8.1251      2.00000
      2      -7.7841      2.00000
      3      -5.9034      2.00000
      4      -5.8974      2.00000
      5      -5.6212      2.00000
      6      -5.5782      2.00000
      7      -5.5014      2.00000
      8      -5.4133      2.00000
      9      -5.3305      2.00000
     10      -5.2664      2.00000
     11      -4.3192      2.00000
     12      -2.3762      2.00000
     13       2.1411      2.00000
     14       2.2952      2.00000
     15       2.8463      2.00000
     16       4.6465      2.00000
     17       5.0501      2.00000
     18       6.8636      2.00000
     19      10.5160      0.00000
     20      11.2483      0.00000
     21      14.6913      0.00000
     22      16.3751      0.00000
     23      18.8792      0.00000
     24      21.5698      0.00000
     25      21.8315      0.00000
     26      22.4048      0.00000
     27      24.1767      0.00000
     28      27.5611      0.00000
     29      27.5673      0.00000
     30      32.2540      0.00000
     31      32.4890      0.00000
     32      32.9099      0.00000

 k-point    45 :       0.5000   -0.3750   -0.0000
  band No.  band energies     occupation 
      1      -7.9641      2.00000
      2      -7.7673      2.00000
      3      -5.9313      2.00000
      4      -5.9134      2.00000
      5      -5.5960      2.00000
      6      -5.5762      2.00000
      7      -5.4908      2.00000
      8      -5.3986      2.00000
      9      -5.2759      2.00000
     10      -5.2681      2.00000
     11      -3.5527      2.00000
     12      -2.5458      2.00000
     13       1.3195      2.00000
     14       1.8040      2.00000
     15       3.6774      2.00000
     16       4.2169      2.00000
     17       4.8020      2.00000
     18       6.3383      2.00000
     19      10.3618      0.00000
     20      11.4295      0.00000
     21      13.9008      0.00000
     22      16.2735      0.00000
     23      19.4903      0.00000
     24      21.5686      0.00000
     25      22.3579      0.00000
     26      22.8306      0.00000
     27      24.2436      0.00000
     28      27.8815      0.00000
     29      28.2168      0.00000
     30      31.3780      0.00000
     31      31.6197      0.00000
     32      33.6956      0.00000

 k-point    46 :      -0.3750   -0.3750   -0.0000
  band No.  band energies     occupation 
      1      -7.7923      2.00000
      2      -7.7314      2.00000
      3      -5.9370      2.00000
      4      -5.8753      2.00000
      5      -5.6252      2.00000
      6      -5.5552      2.00000
      7      -5.5019      2.00000
      8      -5.4153      2.00000
      9      -5.3445      2.00000
     10      -5.3224      2.00000
     11      -3.5311      2.00000
     12      -3.2171      2.00000
     13       1.3630      2.00000
     14       2.1754      2.00000
     15       2.9155      2.00000
     16       4.6609      2.00000
     17       4.7581      2.00000
     18       5.3088      2.00000
     19      11.9812      0.00000
     20      13.0472      0.00000
     21      13.9818      0.00000
     22      16.7506      0.00000
     23      19.4962      0.00000
     24      20.7741      0.00000
     25      22.1912      0.00000
     26      23.2743      0.00000
     27      24.4039      0.00000
     28      27.1369      0.00000
     29      28.9542      0.00000
     30      30.1911      0.00000
     31      31.6115      0.00000
     32      34.3445      0.00000

 k-point    47 :      -0.2500   -0.3750    0.0000
  band No.  band energies     occupation 
      1      -7.7609      2.00000
      2      -7.6417      2.00000
      3      -5.8996      2.00000
      4      -5.7994      2.00000
      5      -5.6543      2.00000
      6      -5.6033      2.00000
      7      -5.5356      2.00000
      8      -5.4928      2.00000
      9      -5.4200      2.00000
     10      -5.3793      2.00000
     11      -4.5511      2.00000
     12      -3.5260      2.00000
     13       1.4944      2.00000
     14       2.3240      2.00000
     15       3.0573      2.00000
     16       4.3241      2.00000
     17       5.0254      2.00000
     18       5.8521      2.00000
     19      14.1967      0.00000
     20      14.7328      0.00000
     21      15.3811      0.00000
     22      17.3496      0.00000
     23      18.7269      0.00000
     24      19.7819      0.00000
     25      21.6077      0.00000
     26      22.5847      0.00000
     27      24.2386      0.00000
     28      27.7859      0.00000
     29      28.7818      0.00000
     30      29.7778      0.00000
     31      32.6794      0.00000
     32      32.8963      0.00000

 k-point    48 :      -0.1250   -0.3750    0.0000
  band No.  band energies     occupation 
      1      -7.9293      2.00000
      2      -7.5708      2.00000
      3      -5.8471      2.00000
      4      -5.7261      2.00000
      5      -5.7116      2.00000
      6      -5.6554      2.00000
      7      -5.6136      2.00000
      8      -5.5588      2.00000
      9      -5.4819      2.00000
     10      -5.3763      2.00000
     11      -5.1357      2.00000
     12      -3.8482      2.00000
     13       0.9903      2.00000
     14       2.2434      2.00000
     15       2.9237      2.00000
     16       5.3431      2.00000
     17       5.5728      2.00000
     18       7.3596      2.00000
     19      15.1117      0.00000
     20      15.8778      0.00000
     21      16.5388      0.00000
     22      17.5791      0.00000
     23      17.8177      0.00000
     24      19.4144      0.00000
     25      21.7804      0.00000
     26      22.2508      0.00000
     27      23.5382      0.00000
     28      27.5827      0.00000
     29      29.4469      0.00000
     30      30.2334      0.00000
     31      30.8265      0.00000
     32      31.4375      0.00000

 k-point    49 :      -0.0000   -0.2500   -0.0000
  band No.  band energies     occupation 
      1      -8.9265      2.00000
      2      -7.8388      2.00000
      3      -5.9105      2.00000
      4      -5.8233      2.00000
      5      -5.6981      2.00000
      6      -5.6442      2.00000
      7      -5.6071      2.00000
      8      -5.5674      2.00000
      9      -5.5181      2.00000
     10      -5.4490      2.00000
     11      -5.3417      2.00000
     12      -3.5516      2.00000
     13       0.9037      2.00000
     14       2.4482      2.00000
     15       4.3076      2.00000
     16       6.7238      2.00000
     17       7.0532      2.00000
     18       8.1199      2.00000
     19      13.4922      0.00000
     20      14.0186      0.00000
     21      17.4029      0.00000
     22      17.8106      0.00000
     23      18.6721      0.00000
     24      19.6194      0.00000
     25      22.7633      0.00000
     26      22.8642      0.00000
     27      24.0131      0.00000
     28      25.7721      0.00000
     29      27.2387      0.00000
     30      28.0400      0.00000
     31      30.0015      0.00000
     32      30.4446      0.00000

 k-point    50 :       0.1250   -0.2500    0.0000
  band No.  band energies     occupation 
      1      -8.9542      2.00000
      2      -7.8920      2.00000
      3      -5.8746      2.00000
      4      -5.7932      2.00000
      5      -5.7061      2.00000
      6      -5.6517      2.00000
      7      -5.6253      2.00000
      8      -5.5521      2.00000
      9      -5.4983      2.00000
     10      -5.4479      2.00000
     11      -5.3080      2.00000
     12      -3.3362      2.00000
     13       0.9623      2.00000
     14       2.9542      2.00000
     15       4.8232      2.00000
     16       6.2692      2.00000
     17       6.9406      2.00000
     18       7.5909      2.00000
     19      13.4004      0.00000
     20      13.6409      0.00000
     21      17.5777      0.00000
     22      17.8375      0.00000
     23      18.2608      0.00000
     24      18.6558      0.00000
     25      21.2228      0.00000
     26      21.9835      0.00000
     27      24.1447      0.00000
     28      25.3759      0.00000
     29      27.5924      0.00000
     30      28.7896      0.00000
     31      29.2269      0.00000
     32      32.7405      0.00000

 k-point    51 :       0.2500   -0.2500    0.0000
  band No.  band energies     occupation 
      1      -8.6787      2.00000
      2      -7.8479      2.00000
      3      -5.8384      2.00000
      4      -5.7886      2.00000
      5      -5.7111      2.00000
      6      -5.5997      2.00000
      7      -5.5796      2.00000
      8      -5.5251      2.00000
      9      -5.5215      2.00000
     10      -5.3154      2.00000
     11      -5.3063      2.00000
     12      -3.0258      2.00000
     13       1.4483      2.00000
     14       3.2450      2.00000
     15       4.6118      2.00000
     16       5.0801      2.00000
     17       5.8620      2.00000
     18       7.3835      2.00000
     19      12.8820      0.00000
     20      13.1130      0.00000
     21      16.9002      0.00000
     22      17.6852      0.00000
     23      17.7046      0.00000
     24      19.8121      0.00000
     25      20.4771      0.00000
     26      21.0839      0.00000
     27      25.2474      0.00000
     28      25.7292      0.00000
     29      26.1044      0.00000
     30      29.9976      0.00000
     31      32.7525      0.00000
     32      33.2931      0.00000

 k-point    52 :       0.3750   -0.2500   -0.0000
  band No.  band energies     occupation 
      1      -8.2478      2.00000
      2      -7.7521      2.00000
      3      -5.8805      2.00000
      4      -5.8488      2.00000
      5      -5.6570      2.00000
      6      -5.6181      2.00000
      7      -5.5472      2.00000
      8      -5.4766      2.00000
      9      -5.4198      2.00000
     10      -5.3281      2.00000
     11      -4.8791      2.00000
     12      -2.8593      2.00000
     13       1.7392      2.00000
     14       2.5709      2.00000
     15       3.1630      2.00000
     16       5.1497      2.00000
     17       5.6327      2.00000
     18       6.9217      2.00000
     19      12.2568      0.00000
     20      12.7749      0.00000
     21      15.8322      0.00000
     22      16.9192      0.00000
     23      17.9367      0.00000
     24      19.6697      0.00000
     25      21.9613      0.00000
     26      22.2815      0.00000
     27      24.6485      0.00000
     28      26.1055      0.00000
     29      27.2248      0.00000
     30      30.8176      0.00000
     31      32.7573      0.00000
     32      33.6585      0.00000

 k-point    53 :       0.5000   -0.2500    0.0000
  band No.  band energies     occupation 
      1      -7.8691      2.00000
      2      -7.6804      2.00000
      3      -5.9136      2.00000
      4      -5.8579      2.00000
      5      -5.6388      2.00000
      6      -5.6176      2.00000
      7      -5.5371      2.00000
      8      -5.4589      2.00000
      9      -5.3816      2.00000
     10      -5.3459      2.00000
     11      -4.1731      2.00000
     12      -3.3935      2.00000
     13       1.3301      2.00000
     14       1.9692      2.00000
     15       3.6115      2.00000
     16       4.1962      2.00000
     17       5.6498      2.00000
     18       6.1063      2.00000
     19      12.7233      0.00000
     20      13.6238      0.00000
     21      15.0248      0.00000
     22      16.8631      0.00000
     23      18.3889      0.00000
     24      19.6739      0.00000
     25      22.5608      0.00000
     26      22.8093      0.00000
     27      24.3831      0.00000
     28      26.4815      0.00000
     29      28.3238      0.00000
     30      30.5053      0.00000
     31      32.8114      0.00000
     32      33.7389      0.00000

 k-point    54 :      -0.3750   -0.2500    0.0000
  band No.  band energies     occupation 
      1      -7.7609      2.00000
      2      -7.6417      2.00000
      3      -5.8996      2.00000
      4      -5.7994      2.00000
      5      -5.6543      2.00000
      6      -5.6033      2.00000
      7      -5.5356      2.00000
      8      -5.4928      2.00000
      9      -5.4200      2.00000
     10      -5.3793      2.00000
     11      -4.5511      2.00000
     12      -3.5260      2.00000
     13       1.4944      2.00000
     14       2.3240      2.00000
     15       3.0573      2.00000
     16       4.3241      2.00000
     17       5.0254      2.00000
     18       5.8521      2.00000
     19      14.1967      0.00000
     20      14.7328      0.00000
     21      15.3811      0.00000
     22      17.3496      0.00000
     23      18.7269      0.00000
     24      19.7819      0.00000
     25      21.6077      0.00000
     26      22.5847      0.00000
     27      24.2386      0.00000
     28      27.7859      0.00000
     29      28.7818      0.00000
     30      29.7778      0.00000
     31      32.6794      0.00000
     32      32.8963      0.00000

 k-point    55 :      -0.2500   -0.2500    0.0000
  band No.  band energies     occupation 
      1      -8.0875      2.00000
      2      -7.6121      2.00000
      3      -5.8378      2.00000
      4      -5.7108      2.00000
      5      -5.6658      2.00000
      6      -5.6179      2.00000
      7      -5.5778      2.00000
      8      -5.5653      2.00000
      9      -5.4806      2.00000
     10      -5.3980      2.00000
     11      -5.3281      2.00000
     12      -3.4848      2.00000
     13       1.6809      2.00000
     14       3.1560      2.00000
     15       3.2239      2.00000
     16       3.3944      2.00000
     17       5.9803      2.00000
     18       6.1184      2.00000
     19      15.0897      0.00000
     20      15.4936      0.00000
     21      16.4694      0.00000
     22      18.0116      0.00000
     23      18.7001      0.00000
     24      20.2010      0.00000
     25      21.3220      0.00000
     26      22.1916      0.00000
     27      23.2399      0.00000
     28      26.9998      0.00000
     29      30.4440      0.00000
     30      30.5049      0.00000
     31      31.6299      0.00000
     32      32.9339      0.00000

 k-point    56 :      -0.1250   -0.2500    0.0000
  band No.  band energies     occupation 
      1      -8.5821      2.00000
      2      -7.7117      2.00000
      3      -5.8339      2.00000
      4      -5.7614      2.00000
      5      -5.7146      2.00000
      6      -5.6598      2.00000
      7      -5.6161      2.00000
      8      -5.5473      2.00000
      9      -5.5448      2.00000
     10      -5.4580      2.00000
     11      -5.3823      2.00000
     12      -3.5948      2.00000
     13       1.2196      2.00000
     14       2.4732      2.00000
     15       3.8905      2.00000
     16       5.1719      2.00000
     17       6.6002      2.00000
     18       7.3073      2.00000
     19      14.3797      0.00000
     20      15.4589      0.00000
     21      17.0096      0.00000
     22      18.1334      0.00000
     23      18.5410      0.00000
     24      20.3193      0.00000
     25      21.4953      0.00000
     26      23.1928      0.00000
     27      23.8837      0.00000
     28      26.2437      0.00000
     29      27.7705      0.00000
     30      29.3553      0.00000
     31      31.7347      0.00000
     32      32.8098      0.00000

 k-point    57 :      -0.0000   -0.1250    0.0000
  band No.  band energies     occupation 
      1      -9.5354      2.00000
      2      -8.0964      2.00000
      3      -5.9124      2.00000
      4      -5.8413      2.00000
      5      -5.7682      2.00000
      6      -5.6218      2.00000
      7      -5.6110      2.00000
      8      -5.5296      2.00000
      9      -5.4992      2.00000
     10      -5.4194      2.00000
     11      -5.3311      2.00000
     12      -3.6090      2.00000
     13       0.1984      2.00000
     14       4.2770      2.00000
     15       6.2494      2.00000
     16       6.6416      2.00000
     17       7.8022      2.00000
     18       8.1149      2.00000
     19      12.0251      0.00000
     20      12.3593      0.00000
     21      17.6914      0.00000
     22      19.0325      0.00000
     23      19.8868      0.00000
     24      21.0196      0.00000
     25      21.9302      0.00000
     26      22.6927      0.00000
     27      23.2771      0.00000
     28      24.8513      0.00000
     29      26.8345      0.00000
     30      27.8077      0.00000
     31      29.2455      0.00000
     32      31.0873      0.00000

 k-point    58 :       0.1250   -0.1250    0.0000
  band No.  band energies     occupation 
      1      -9.4344      2.00000
      2      -8.0714      2.00000
      3      -5.8655      2.00000
      4      -5.8351      2.00000
      5      -5.7343      2.00000
      6      -5.6339      2.00000
      7      -5.6237      2.00000
      8      -5.5551      2.00000
      9      -5.5074      2.00000
     10      -5.4547      2.00000
     11      -5.3053      2.00000
     12      -3.4988      2.00000
     13       0.3467      2.00000
     14       4.5107      2.00000
     15       6.0333      2.00000
     16       6.7481      2.00000
     17       6.9238      2.00000
     18       7.8676      2.00000
     19      12.3857      0.00000
     20      12.7165      0.00000
     21      18.2787      0.00000
     22      18.6953      0.00000
     23      20.2011      0.00000
     24      20.2237      0.00000
     25      20.5028      0.00000
     26      20.9071      0.00000
     27      23.1720      0.00000
     28      24.4313      0.00000
     29      28.2261      0.00000
     30      28.5719      0.00000
     31      29.1761      0.00000
     32      30.1969      0.00000

 k-point    59 :       0.2500   -0.1250   -0.0000
  band No.  band energies     occupation 
      1      -8.9542      2.00000
      2      -7.8920      2.00000
      3      -5.8746      2.00000
      4      -5.7932      2.00000
      5      -5.7061      2.00000
      6      -5.6517      2.00000
      7      -5.6253      2.00000
      8      -5.5521      2.00000
      9      -5.4983      2.00000
     10      -5.4479      2.00000
     11      -5.3080      2.00000
     12      -3.3362      2.00000
     13       0.9623      2.00000
     14       2.9542      2.00000
     15       4.8232      2.00000
     16       6.2692      2.00000
     17       6.9406      2.00000
     18       7.5909      2.00000
     19      13.4004      0.00000
     20      13.6409      0.00000
     21      17.5777      0.00000
     22      17.8375      0.00000
     23      18.2608      0.00000
     24      18.6558      0.00000
     25      21.2228      0.00000
     26      21.9835      0.00000
     27      24.1447      0.00000
     28      25.3759      0.00000
     29      27.5924      0.00000
     30      28.7896      0.00000
     31      29.2269      0.00000
     32      32.7405      0.00000

 k-point    60 :       0.3750   -0.1250    0.0000
  band No.  band energies     occupation 
      1      -8.2763      2.00000
      2      -7.6784      2.00000
      3      -5.8800      2.00000
      4      -5.7913      2.00000
      5      -5.7791      2.00000
      6      -5.6632      2.00000
      7      -5.5848      2.00000
      8      -5.5232      2.00000
      9      -5.4771      2.00000
     10      -5.3617      2.00000
     11      -5.1200      2.00000
     12      -3.4338      2.00000
     13       1.1201      2.00000
     14       2.2899      2.00000
     15       2.9039      2.00000
     16       5.9404      2.00000
     17       6.7908      2.00000
     18       7.4355      2.00000
     19      14.4873      0.00000
     20      14.6166      0.00000
     21      16.4747      0.00000
     22      17.0445      0.00000
     23      17.2098      0.00000
     24      17.6870      0.00000
     25      22.5109      0.00000
     26      23.4421      0.00000
     27      24.9479      0.00000
     28      25.8495      0.00000
     29      26.9323      0.00000
     30      29.3493      0.00000
     31      30.0692      0.00000
     32      32.5336      0.00000

 k-point    61 :       0.5000   -0.1250   -0.0000
  band No.  band energies     occupation 
      1      -7.7721      2.00000
      2      -7.5892      2.00000
      3      -5.8561      2.00000
      4      -5.7884      2.00000
      5      -5.7595      2.00000
      6      -5.6770      2.00000
      7      -5.5601      2.00000
      8      -5.5493      2.00000
      9      -5.4411      2.00000
     10      -5.3642      2.00000
     11      -4.5780      2.00000
     12      -4.1814      2.00000
     13       0.9721      2.00000
     14       1.5660      2.00000
     15       3.4869      2.00000
     16       4.6923      2.00000
     17       6.2767      2.00000
     18       7.4770      2.00000
     19      15.1289      0.00000
     20      15.7383      0.00000
     21      16.2921      0.00000
     22      16.8671      0.00000
     23      17.3044      0.00000
     24      17.6598      0.00000
     25      22.2940      0.00000
     26      23.1402      0.00000
     27      24.4653      0.00000
     28      26.8841      0.00000
     29      28.2261      0.00000
     30      29.8335      0.00000
     31      30.9302      0.00000
     32      32.1879      0.00000

 k-point    62 :      -0.3750   -0.1250    0.0000
  band No.  band energies     occupation 
      1      -7.9293      2.00000
      2      -7.5708      2.00000
      3      -5.8471      2.00000
      4      -5.7261      2.00000
      5      -5.7116      2.00000
      6      -5.6554      2.00000
      7      -5.6136      2.00000
      8      -5.5588      2.00000
      9      -5.4819      2.00000
     10      -5.3763      2.00000
     11      -5.1357      2.00000
     12      -3.8482      2.00000
     13       0.9903      2.00000
     14       2.2434      2.00000
     15       2.9237      2.00000
     16       5.3431      2.00000
     17       5.5728      2.00000
     18       7.3596      2.00000
     19      15.1117      0.00000
     20      15.8778      0.00000
     21      16.5388      0.00000
     22      17.5791      0.00000
     23      17.8177      0.00000
     24      19.4144      0.00000
     25      21.7804      0.00000
     26      22.2508      0.00000
     27      23.5382      0.00000
     28      27.5827      0.00000
     29      29.4469      0.00000
     30      30.2334      0.00000
     31      30.8265      0.00000
     32      31.4375      0.00000

 k-point    63 :      -0.2500   -0.1250    0.0000
  band No.  band energies     occupation 
      1      -8.5821      2.00000
      2      -7.7117      2.00000
      3      -5.8339      2.00000
      4      -5.7614      2.00000
      5      -5.7146      2.00000
      6      -5.6598      2.00000
      7      -5.6161      2.00000
      8      -5.5473      2.00000
      9      -5.5448      2.00000
     10      -5.4580      2.00000
     11      -5.3823      2.00000
     12      -3.5948      2.00000
     13       1.2196      2.00000
     14       2.4732      2.00000
     15       3.8905      2.00000
     16       5.1719      2.00000
     17       6.6002      2.00000
     18       7.3073      2.00000
     19      14.3797      0.00000
     20      15.4589      0.00000
     21      17.0096      0.00000
     22      18.1334      0.00000
     23      18.5410      0.00000
     24      20.3193      0.00000
     25      21.4953      0.00000
     26      23.1928      0.00000
     27      23.8837      0.00000
     28      26.2437      0.00000
     29      27.7705      0.00000
     30      29.3553      0.00000
     31      31.7347      0.00000
     32      32.8098      0.00000

 k-point    64 :      -0.1250   -0.1250    0.0000
  band No.  band energies     occupation 
      1      -9.2207      2.00000
      2      -7.9448      2.00000
      3      -5.8970      2.00000
      4      -5.7898      2.00000
      5      -5.7831      2.00000
      6      -5.6385      2.00000
      7      -5.6084      2.00000
      8      -5.5244      2.00000
      9      -5.5191      2.00000
     10      -5.4257      2.00000
     11      -5.3912      2.00000
     12      -3.6077      2.00000
     13       0.5518      2.00000
     14       3.6239      2.00000
     15       5.3737      2.00000
     16       5.6696      2.00000
     17       7.4202      2.00000
     18       7.6858      2.00000
     19      13.0786      0.00000
     20      13.8396      0.00000
     21      17.8681      0.00000
     22      18.5276      0.00000
     23      19.3844      0.00000
     24      20.0599      0.00000
     25      21.8805      0.00000
     26      23.1411      0.00000
     27      25.3799      0.00000
     28      25.5080      0.00000
     29      27.5156      0.00000
     30      28.7247      0.00000
     31      29.0033      0.00000
     32      30.9917      0.00000

 k-point    65 :      -0.0000    0.0000    0.1667
  band No.  band energies     occupation 
      1      -9.6344      2.00000
      2      -8.2617      2.00000
      3      -5.9130      2.00000
      4      -5.8606      2.00000
      5      -5.8080      2.00000
      6      -5.6020      2.00000
      7      -5.5925      2.00000
      8      -5.5066      2.00000
      9      -5.5023      2.00000
     10      -5.3869      2.00000
     11      -5.3233      2.00000
     12      -4.1898      2.00000
     13       0.7455      2.00000
     14       5.2415      2.00000
     15       6.9503      2.00000
     16       6.9923      2.00000
     17       7.4237      2.00000
     18       8.2450      2.00000
     19      11.5277      0.00000
     20      11.7033      0.00000
     21      17.5952      0.00000
     22      19.0236      0.00000
     23      19.4059      0.00000
     24      21.3163      0.00000
     25      22.3835      0.00000
     26      22.5457      0.00000
     27      22.7184      0.00000
     28      26.1990      0.00000
     29      26.9820      0.00000
     30      27.6996      0.00000
     31      27.9157      0.00000
     32      30.6358      0.00000

 k-point    66 :       0.1250    0.0000    0.1667
  band No.  band energies     occupation 
      1      -9.4170      2.00000
      2      -8.1454      2.00000
      3      -5.9114      2.00000
      4      -5.8441      2.00000
      5      -5.7831      2.00000
      6      -5.6109      2.00000
      7      -5.5929      2.00000
      8      -5.5328      2.00000
      9      -5.4993      2.00000
     10      -5.4215      2.00000
     11      -5.3475      2.00000
     12      -4.0959      2.00000
     13       0.9254      2.00000
     14       4.4513      2.00000
     15       5.8554      2.00000
     16       6.7266      2.00000
     17       7.5738      2.00000
     18       8.0536      2.00000
     19      12.3760      0.00000
     20      12.5308      0.00000
     21      17.7495      0.00000
     22      18.6180      0.00000
     23      19.0757      0.00000
     24      20.2518      0.00000
     25      22.2697      0.00000
     26      22.7947      0.00000
     27      23.4145      0.00000
     28      25.0737      0.00000
     29      27.2346      0.00000
     30      28.4055      0.00000
     31      29.8796      0.00000
     32      31.4547      0.00000

 k-point    67 :       0.2500    0.0000    0.1667
  band No.  band energies     occupation 
      1      -8.8213      2.00000
      2      -7.8621      2.00000
      3      -5.9137      2.00000
      4      -5.8323      2.00000
      5      -5.7352      2.00000
      6      -5.6117      2.00000
      7      -5.6029      2.00000
      8      -5.5623      2.00000
      9      -5.5148      2.00000
     10      -5.4401      2.00000
     11      -5.3516      2.00000
     12      -3.9308      2.00000
     13       1.1533      2.00000
     14       2.9715      2.00000
     15       3.9042      2.00000
     16       6.8001      2.00000
     17       7.2108      2.00000
     18       8.0304      2.00000
     19      13.3930      0.00000
     20      14.1655      0.00000
     21      17.0331      0.00000
     22      17.7176      0.00000
     23      18.5980      0.00000
     24      19.4170      0.00000
     25      22.3260      0.00000
     26      23.0726      0.00000
     27      23.8823      0.00000
     28      25.9924      0.00000
     29      27.3152      0.00000
     30      29.1977      0.00000
     31      30.0714      0.00000
     32      30.7298      0.00000

 k-point    68 :       0.3750    0.0000    0.1667
  band No.  band energies     occupation 
      1      -8.0793      2.00000
      2      -7.5932      2.00000
      3      -5.8910      2.00000
      4      -5.8021      2.00000
      5      -5.7492      2.00000
      6      -5.6845      2.00000
      7      -5.5968      2.00000
      8      -5.5590      2.00000
      9      -5.4524      2.00000
     10      -5.3735      2.00000
     11      -5.2223      2.00000
     12      -4.0082      2.00000
     13       0.4692      2.00000
     14       1.9987      2.00000
     15       3.3016      2.00000
     16       6.1301      2.00000
     17       7.1488      2.00000
     18       8.1048      2.00000
     19      14.0774      0.00000
     20      15.3439      0.00000
     21      16.3572      0.00000
     22      17.3661      0.00000
     23      18.0674      0.00000
     24      18.5104      0.00000
     25      22.4520      0.00000
     26      23.2913      0.00000
     27      23.7629      0.00000
     28      26.8040      0.00000
     29      27.9574      0.00000
     30      29.0249      0.00000
     31      30.3874      0.00000
     32      31.0414      0.00000

 k-point    69 :       0.5000    0.0000    0.1667
  band No.  band energies     occupation 
      1      -7.6866      2.00000
      2      -7.5247      2.00000
      3      -5.8746      2.00000
      4      -5.7771      2.00000
      5      -5.7272      2.00000
      6      -5.7229      2.00000
      7      -5.5828      2.00000
      8      -5.5757      2.00000
      9      -5.4156      2.00000
     10      -5.3703      2.00000
     11      -4.7270      2.00000
     12      -4.5508      2.00000
     13       0.4012      2.00000
     14       0.9071      2.00000
     15       4.1939      2.00000
     16       5.1392      2.00000
     17       7.2834      2.00000
     18       8.1251      2.00000
     19      14.6597      0.00000
     20      14.8005      0.00000
     21      17.1139      0.00000
     22      17.2873      0.00000
     23      17.9097      0.00000
     24      17.9516      0.00000
     25      22.0780      0.00000
     26      22.7545      0.00000
     27      24.7900      0.00000
     28      25.7683      0.00000
     29      28.4464      0.00000
     30      29.4080      0.00000
     31      30.5503      0.00000
     32      31.3813      0.00000

 k-point    70 :      -0.3750   -0.0000    0.1667
  band No.  band energies     occupation 
      1      -8.0793      2.00000
      2      -7.5932      2.00000
      3      -5.8909      2.00000
      4      -5.8021      2.00000
      5      -5.7492      2.00000
      6      -5.6845      2.00000
      7      -5.5968      2.00000
      8      -5.5590      2.00000
      9      -5.4524      2.00000
     10      -5.3735      2.00000
     11      -5.2223      2.00000
     12      -4.0082      2.00000
     13       0.4692      2.00000
     14       1.9987      2.00000
     15       3.3016      2.00000
     16       6.1302      2.00000
     17       7.1488      2.00000
     18       8.1048      2.00000
     19      14.0775      0.00000
     20      15.3438      0.00000
     21      16.3570      0.00000
     22      17.3660      0.00000
     23      18.0675      0.00000
     24      18.5104      0.00000
     25      22.4520      0.00000
     26      23.2914      0.00000
     27      23.7627      0.00000
     28      26.8040      0.00000
     29      27.9574      0.00000
     30      29.0249      0.00000
     31      30.3874      0.00000
     32      31.0416      0.00000

 k-point    71 :      -0.2500    0.0000    0.1667
  band No.  band energies     occupation 
      1      -8.8213      2.00000
      2      -7.8621      2.00000
      3      -5.9137      2.00000
      4      -5.8323      2.00000
      5      -5.7352      2.00000
      6      -5.6116      2.00000
      7      -5.6029      2.00000
      8      -5.5623      2.00000
      9      -5.5148      2.00000
     10      -5.4401      2.00000
     11      -5.3516      2.00000
     12      -3.9307      2.00000
     13       1.1533      2.00000
     14       2.9715      2.00000
     15       3.9041      2.00000
     16       6.8001      2.00000
     17       7.2109      2.00000
     18       8.0304      2.00000
     19      13.3931      0.00000
     20      14.1655      0.00000
     21      17.0329      0.00000
     22      17.7176      0.00000
     23      18.5982      0.00000
     24      19.4171      0.00000
     25      22.3260      0.00000
     26      23.0726      0.00000
     27      23.8822      0.00000
     28      25.9924      0.00000
     29      27.3152      0.00000
     30      29.1977      0.00000
     31      30.0714      0.00000
     32      30.7298      0.00000

 k-point    72 :      -0.1250   -0.0000    0.1667
  band No.  band energies     occupation 
      1      -9.4170      2.00000
      2      -8.1454      2.00000
      3      -5.9114      2.00000
      4      -5.8441      2.00000
      5      -5.7831      2.00000
      6      -5.6109      2.00000
      7      -5.5929      2.00000
      8      -5.5328      2.00000
      9      -5.4993      2.00000
     10      -5.4215      2.00000
     11      -5.3475      2.00000
     12      -4.0959      2.00000
     13       0.9254      2.00000
     14       4.4513      2.00000
     15       5.8554      2.00000
     16       6.7266      2.00000
     17       7.5737      2.00000
     18       8.0536      2.00000
     19      12.3760      0.00000
     20      12.5308      0.00000
     21      17.7494      0.00000
     22      18.6180      0.00000
     23      19.0757      0.00000
     24      20.2519      0.00000
     25      22.2697      0.00000
     26      22.7948      0.00000
     27      23.4145      0.00000
     28      25.0737      0.00000
     29      27.2346      0.00000
     30      28.4054      0.00000
     31      29.8797      0.00000
     32      31.4545      0.00000

 k-point    73 :       0.0000    0.1250    0.1667
  band No.  band energies     occupation 
      1      -9.4170      2.00000
      2      -8.1454      2.00000
      3      -5.9114      2.00000
      4      -5.8441      2.00000
      5      -5.7831      2.00000
      6      -5.6109      2.00000
      7      -5.5929      2.00000
      8      -5.5328      2.00000
      9      -5.4993      2.00000
     10      -5.4215      2.00000
     11      -5.3475      2.00000
     12      -4.0959      2.00000
     13       0.9254      2.00000
     14       4.4513      2.00000
     15       5.8554      2.00000
     16       6.7266      2.00000
     17       7.5737      2.00000
     18       8.0536      2.00000
     19      12.3760      0.00000
     20      12.5308      0.00000
     21      17.7494      0.00000
     22      18.6180      0.00000
     23      19.0757      0.00000
     24      20.2519      0.00000
     25      22.2697      0.00000
     26      22.7948      0.00000
     27      23.4145      0.00000
     28      25.0737      0.00000
     29      27.2346      0.00000
     30      28.4054      0.00000
     31      29.8797      0.00000
     32      31.4545      0.00000

 k-point    74 :       0.1250    0.1250    0.1667
  band No.  band energies     occupation 
      1      -9.1076      2.00000
      2      -7.9806      2.00000
      3      -5.8978      2.00000
      4      -5.8010      2.00000
      5      -5.8006      2.00000
      6      -5.6197      2.00000
      7      -5.5852      2.00000
      8      -5.5317      2.00000
      9      -5.5049      2.00000
     10      -5.4455      2.00000
     11      -5.3996      2.00000
     12      -4.0382      2.00000
     13       1.1102      2.00000
     14       3.9056      2.00000
     15       4.9317      2.00000
     16       5.7864      2.00000
     17       7.4953      2.00000
     18       7.5310      2.00000
     19      13.2510      0.00000
     20      13.9722      0.00000
     21      17.8842      0.00000
     22      18.2016      0.00000
     23      19.0110      0.00000
     24      19.0407      0.00000
     25      22.5329      0.00000
     26      23.6181      0.00000
     27      25.3513      0.00000
     28      25.3671      0.00000
     29      28.0185      0.00000
     30      28.1400      0.00000
     31      29.4786      0.00000
     32      31.7918      0.00000

 k-point    75 :       0.2500    0.1250    0.1667
  band No.  band energies     occupation 
      1      -8.4868      2.00000
      2      -7.7220      2.00000
      3      -5.8428      2.00000
      4      -5.7802      2.00000
      5      -5.7314      2.00000
      6      -5.6341      2.00000
      7      -5.6180      2.00000
      8      -5.5503      2.00000
      9      -5.5237      2.00000
     10      -5.4481      2.00000
     11      -5.3884      2.00000
     12      -3.9101      2.00000
     13       1.1883      2.00000
     14       3.1591      2.00000
     15       3.4737      2.00000
     16       5.3116      2.00000
     17       6.8486      2.00000
     18       7.1770      2.00000
     19      14.2325      0.00000
     20      15.5800      0.00000
     21      17.0687      0.00000
     22      17.7019      0.00000
     23      18.4529      0.00000
     24      19.3907      0.00000
     25      21.9579      0.00000
     26      23.6892      0.00000
     27      23.9559      0.00000
     28      26.6432      0.00000
     29      27.8530      0.00000
     30      29.1859      0.00000
     31      31.3527      0.00000
     32      32.0611      0.00000

 k-point    76 :       0.3750    0.1250    0.1667
  band No.  band energies     occupation 
      1      -7.8673      2.00000
      2      -7.5567      2.00000
      3      -5.8549      2.00000
      4      -5.7478      2.00000
      5      -5.7152      2.00000
      6      -5.6865      2.00000
      7      -5.6252      2.00000
      8      -5.5252      2.00000
      9      -5.4458      2.00000
     10      -5.3831      2.00000
     11      -5.1094      2.00000
     12      -3.9788      2.00000
     13       0.6091      2.00000
     14       1.8275      2.00000
     15       3.6710      2.00000
     16       5.6675      2.00000
     17       5.8934      2.00000
     18       7.2080      2.00000
     19      14.5268      0.00000
     20      16.1341      0.00000
     21      16.4750      0.00000
     22      17.0064      0.00000
     23      18.3394      0.00000
     24      19.3079      0.00000
     25      20.7945      0.00000
     26      23.2077      0.00000
     27      23.6583      0.00000
     28      27.7473      0.00000
     29      28.5789      0.00000
     30      29.9724      0.00000
     31      30.7665      0.00000
     32      31.8597      0.00000

 k-point    77 :       0.5000    0.1250    0.1667
  band No.  band energies     occupation 
      1      -7.7243      2.00000
      2      -7.5665      2.00000
      3      -5.8623      2.00000
      4      -5.7978      2.00000
      5      -5.7680      2.00000
      6      -5.7137      2.00000
      7      -5.5919      2.00000
      8      -5.5026      2.00000
      9      -5.4238      2.00000
     10      -5.3536      2.00000
     11      -4.5709      2.00000
     12      -4.2113      2.00000
     13       0.5500      2.00000
     14       1.1570      2.00000
     15       4.2054      2.00000
     16       5.1564      2.00000
     17       6.4409      2.00000
     18       7.3726      2.00000
     19      14.6319      0.00000
     20      15.2244      0.00000
     21      16.1067      0.00000
     22      16.8914      0.00000
     23      17.7829      0.00000
     24      18.2311      0.00000
     25      21.2072      0.00000
     26      23.3123      0.00000
     27      24.5844      0.00000
     28      26.4347      0.00000
     29      28.5122      0.00000
     30      30.1200      0.00000
     31      31.3612      0.00000
     32      31.9354      0.00000

 k-point    78 :      -0.3750    0.1250    0.1667
  band No.  band energies     occupation 
      1      -8.1987      2.00000
      2      -7.6759      2.00000
      3      -5.8823      2.00000
      4      -5.8052      2.00000
      5      -5.7878      2.00000
      6      -5.6918      2.00000
      7      -5.5962      2.00000
      8      -5.5012      2.00000
      9      -5.4584      2.00000
     10      -5.3625      2.00000
     11      -5.0917      2.00000
     12      -3.6614      2.00000
     13       0.7990      2.00000
     14       2.4985      2.00000
     15       3.2078      2.00000
     16       6.1576      2.00000
     17       6.9033      2.00000
     18       7.3982      2.00000
     19      14.2036      0.00000
     20      14.6730      0.00000
     21      15.7227      0.00000
     22      16.7600      0.00000
     23      17.8967      0.00000
     24      18.2231      0.00000
     25      22.0029      0.00000
     26      22.3989      0.00000
     27      25.3041      0.00000
     28      26.0709      0.00000
     29      27.2490      0.00000
     30      29.6465      0.00000
     31      30.9571      0.00000
     32      32.4066      0.00000

 k-point    79 :      -0.2500    0.1250    0.1667
  band No.  band energies     occupation 
      1      -8.8511      2.00000
      2      -7.9150      2.00000
      3      -5.8746      2.00000
      4      -5.7978      2.00000
      5      -5.7213      2.00000
      6      -5.6732      2.00000
      7      -5.6109      2.00000
      8      -5.5470      2.00000
      9      -5.5245      2.00000
     10      -5.3998      2.00000
     11      -5.3161      2.00000
     12      -3.7447      2.00000
     13       1.4161      2.00000
     14       3.2806      2.00000
     15       4.4864      2.00000
     16       6.3453      2.00000
     17       6.8868      2.00000
     18       7.5782      2.00000
     19      13.5310      0.00000
     20      13.7587      0.00000
     21      16.7776      0.00000
     22      17.5530      0.00000
     23      18.5143      0.00000
     24      19.0940      0.00000
     25      20.9326      0.00000
     26      21.4378      0.00000
     27      24.5130      0.00000
     28      25.8715      0.00000
     29      27.3119      0.00000
     30      28.6281      0.00000
     31      30.1947      0.00000
     32      32.8324      0.00000

 k-point    80 :      -0.1250    0.1250    0.1667
  band No.  band energies     occupation 
      1      -9.3190      2.00000
      2      -8.1150      2.00000
      3      -5.8610      2.00000
      4      -5.8381      2.00000
      5      -5.7471      2.00000
      6      -5.6431      2.00000
      7      -5.5992      2.00000
      8      -5.5667      2.00000
      9      -5.5218      2.00000
     10      -5.4232      2.00000
     11      -5.3260      2.00000
     12      -3.9814      2.00000
     13       1.0750      2.00000
     14       4.6418      2.00000
     15       6.1431      2.00000
     16       6.4554      2.00000
     17       6.5718      2.00000
     18       7.8842      2.00000
     19      12.7209      0.00000
     20      12.8720      0.00000
     21      18.1019      0.00000
     22      18.4083      0.00000
     23      19.0217      0.00000
     24      20.1970      0.00000
     25      20.5580      0.00000
     26      21.0919      0.00000
     27      23.1699      0.00000
     28      25.3360      0.00000
     29      27.8205      0.00000
     30      29.0698      0.00000
     31      29.6314      0.00000
     32      30.8713      0.00000

 k-point    81 :       0.0000    0.2500    0.1667
  band No.  band energies     occupation 
      1      -8.8213      2.00000
      2      -7.8621      2.00000
      3      -5.9137      2.00000
      4      -5.8323      2.00000
      5      -5.7352      2.00000
      6      -5.6116      2.00000
      7      -5.6029      2.00000
      8      -5.5623      2.00000
      9      -5.5148      2.00000
     10      -5.4401      2.00000
     11      -5.3516      2.00000
     12      -3.9307      2.00000
     13       1.1533      2.00000
     14       2.9715      2.00000
     15       3.9041      2.00000
     16       6.8001      2.00000
     17       7.2109      2.00000
     18       8.0304      2.00000
     19      13.3931      0.00000
     20      14.1655      0.00000
     21      17.0329      0.00000
     22      17.7176      0.00000
     23      18.5982      0.00000
     24      19.4171      0.00000
     25      22.3260      0.00000
     26      23.0726      0.00000
     27      23.8822      0.00000
     28      25.9924      0.00000
     29      27.3152      0.00000
     30      29.1977      0.00000
     31      30.0714      0.00000
     32      30.7298      0.00000

 k-point    82 :       0.1250    0.2500    0.1667
  band No.  band energies     occupation 
      1      -8.4868      2.00000
      2      -7.7220      2.00000
      3      -5.8428      2.00000
      4      -5.7802      2.00000
      5      -5.7314      2.00000
      6      -5.6341      2.00000
      7      -5.6180      2.00000
      8      -5.5503      2.00000
      9      -5.5237      2.00000
     10      -5.4481      2.00000
     11      -5.3884      2.00000
     12      -3.9100      2.00000
     13       1.1884      2.00000
     14       3.1591      2.00000
     15       3.4737      2.00000
     16       5.3116      2.00000
     17       6.8487      2.00000
     18       7.1769      2.00000
     19      14.2326      0.00000
     20      15.5800      0.00000
     21      17.0686      0.00000
     22      17.7018      0.00000
     23      18.4530      0.00000
     24      19.3908      0.00000
     25      21.9578      0.00000
     26      23.6891      0.00000
     27      23.9559      0.00000
     28      26.6432      0.00000
     29      27.8530      0.00000
     30      29.1860      0.00000
     31      31.3524      0.00000
     32      32.0612      0.00000

 k-point    83 :       0.2500    0.2500    0.1667
  band No.  band energies     occupation 
      1      -8.0169      2.00000
      2      -7.6035      2.00000
      3      -5.8356      2.00000
      4      -5.7211      2.00000
      5      -5.7031      2.00000
      6      -5.6134      2.00000
      7      -5.5730      2.00000
      8      -5.5699      2.00000
      9      -5.4839      2.00000
     10      -5.4364      2.00000
     11      -5.2352      2.00000
     12      -3.7004      2.00000
     13       1.3933      2.00000
     14       2.9007      2.00000
     15       3.4403      2.00000
     16       3.9670      2.00000
     17       5.8688      2.00000
     18       6.4035      2.00000
     19      15.0983      0.00000
     20      15.7261      0.00000
     21      16.4031      0.00000
     22      17.6747      0.00000
     23      18.3660      0.00000
     24      19.0119      0.00000
     25      22.2119      0.00000
     26      22.5260      0.00000
     27      23.4093      0.00000
     28      27.5214      0.00000
     29      29.4748      0.00000
     30      30.0020      0.00000
     31      31.5182      0.00000
     32      33.0691      0.00000

 k-point    84 :       0.3750    0.2500    0.1667
  band No.  band energies     occupation 
      1      -7.7186      2.00000
      2      -7.6167      2.00000
      3      -5.8909      2.00000
      4      -5.7985      2.00000
      5      -5.7140      2.00000
      6      -5.5994      2.00000
      7      -5.5498      2.00000
      8      -5.4841      2.00000
      9      -5.4295      2.00000
     10      -5.3769      2.00000
     11      -4.4922      2.00000
     12      -3.5983      2.00000
     13       1.1978      2.00000
     14       1.9271      2.00000
     15       3.1339      2.00000
     16       4.9842      2.00000
     17       5.3073      2.00000
     18       5.8314      2.00000
     19      14.2390      0.00000
     20      14.9198      0.00000
     21      15.4099      0.00000
     22      17.1670      0.00000
     23      18.3290      0.00000
     24      19.1443      0.00000
     25      21.5812      0.00000
     26      23.1121      0.00000
     27      24.1353      0.00000
     28      27.2041      0.00000
     29      29.2155      0.00000
     30      30.3753      0.00000
     31      31.2562      0.00000
     32      32.9960      0.00000

 k-point    85 :       0.5000    0.2500    0.1667
  band No.  band energies     occupation 
      1      -7.8238      2.00000
      2      -7.6596      2.00000
      3      -5.9052      2.00000
      4      -5.8555      2.00000
      5      -5.6997      2.00000
      6      -5.6096      2.00000
      7      -5.5593      2.00000
      8      -5.4589      2.00000
      9      -5.3934      2.00000
     10      -5.3288      2.00000
     11      -4.1325      2.00000
     12      -3.4403      2.00000
     13       1.0203      2.00000
     14       1.7093      2.00000
     15       3.9364      2.00000
     16       4.4169      2.00000
     17       5.7334      2.00000
     18       6.2950      2.00000
     19      12.7607      0.00000
     20      13.5697      0.00000
     21      15.3002      0.00000
     22      16.6922      0.00000
     23      18.4066      0.00000
     24      19.5010      0.00000
     25      21.5996      0.00000
     26      22.7799      0.00000
     27      24.2906      0.00000
     28      26.7042      0.00000
     29      29.1785      0.00000
     30      30.6662      0.00000
     31      31.2263      0.00000
     32      33.6791      0.00000

 k-point    86 :      -0.3750    0.2500    0.1667
  band No.  band energies     occupation 
      1      -8.1796      2.00000
      2      -7.7468      2.00000
      3      -5.8713      2.00000
      4      -5.8421      2.00000
      5      -5.7061      2.00000
      6      -5.6199      2.00000
      7      -5.5760      2.00000
      8      -5.4789      2.00000
      9      -5.4140      2.00000
     10      -5.3345      2.00000
     11      -4.8094      2.00000
     12      -3.1200      2.00000
     13       1.5648      2.00000
     14       2.9758      2.00000
     15       3.2573      2.00000
     16       5.0975      2.00000
     17       5.6396      2.00000
     18       6.9438      2.00000
     19      12.2372      0.00000
     20      12.9376      0.00000
     21      15.9225      0.00000
     22      16.7710      0.00000
     23      17.9903      0.00000
     24      19.7461      0.00000
     25      21.4401      0.00000
     26      21.8937      0.00000
     27      24.4254      0.00000
     28      26.4133      0.00000
     29      27.8969      0.00000
     30      30.4145      0.00000
     31      31.6715      0.00000
     32      33.3892      0.00000

 k-point    87 :      -0.2500    0.2500    0.1667
  band No.  band energies     occupation 
      1      -8.5885      2.00000
      2      -7.8588      2.00000
      3      -5.8203      2.00000
      4      -5.7914      2.00000
      5      -5.7402      2.00000
      6      -5.6140      2.00000
      7      -5.5950      2.00000
      8      -5.5561      2.00000
      9      -5.5105      2.00000
     10      -5.3270      2.00000
     11      -5.2341      2.00000
     12      -3.4115      2.00000
     13       1.9136      2.00000
     14       3.3943      2.00000
     15       4.5412      2.00000
     16       5.1947      2.00000
     17       5.6461      2.00000
     18       7.3011      2.00000
     19      12.9453      0.00000
     20      13.3360      0.00000
     21      16.5456      0.00000
     22      17.2724      0.00000
     23      18.0050      0.00000
     24      19.9519      0.00000
     25      20.4320      0.00000
     26      20.8343      0.00000
     27      25.2544      0.00000
     28      25.6799      0.00000
     29      26.6767      0.00000
     30      29.1735      0.00000
     31      32.5533      0.00000
     32      33.3053      0.00000

 k-point    88 :      -0.1250    0.2500    0.1667
  band No.  band energies     occupation 
      1      -8.8511      2.00000
      2      -7.9150      2.00000
      3      -5.8746      2.00000
      4      -5.7978      2.00000
      5      -5.7213      2.00000
      6      -5.6732      2.00000
      7      -5.6109      2.00000
      8      -5.5470      2.00000
      9      -5.5245      2.00000
     10      -5.3998      2.00000
     11      -5.3161      2.00000
     12      -3.7447      2.00000
     13       1.4161      2.00000
     14       3.2806      2.00000
     15       4.4864      2.00000
     16       6.3453      2.00000
     17       6.8868      2.00000
     18       7.5782      2.00000
     19      13.5310      0.00000
     20      13.7587      0.00000
     21      16.7776      0.00000
     22      17.5530      0.00000
     23      18.5143      0.00000
     24      19.0940      0.00000
     25      20.9326      0.00000
     26      21.4378      0.00000
     27      24.5130      0.00000
     28      25.8715      0.00000
     29      27.3119      0.00000
     30      28.6281      0.00000
     31      30.1947      0.00000
     32      32.8324      0.00000

 k-point    89 :       0.0000    0.3750    0.1667
  band No.  band energies     occupation 
      1      -8.0793      2.00000
      2      -7.5932      2.00000
      3      -5.8909      2.00000
      4      -5.8021      2.00000
      5      -5.7492      2.00000
      6      -5.6845      2.00000
      7      -5.5968      2.00000
      8      -5.5590      2.00000
      9      -5.4524      2.00000
     10      -5.3735      2.00000
     11      -5.2223      2.00000
     12      -4.0082      2.00000
     13       0.4692      2.00000
     14       1.9987      2.00000
     15       3.3016      2.00000
     16       6.1302      2.00000
     17       7.1488      2.00000
     18       8.1048      2.00000
     19      14.0775      0.00000
     20      15.3438      0.00000
     21      16.3570      0.00000
     22      17.3660      0.00000
     23      18.0675      0.00000
     24      18.5104      0.00000
     25      22.4520      0.00000
     26      23.2914      0.00000
     27      23.7627      0.00000
     28      26.8040      0.00000
     29      27.9574      0.00000
     30      29.0249      0.00000
     31      30.3874      0.00000
     32      31.0416      0.00000

 k-point    90 :       0.1250    0.3750    0.1667
  band No.  band energies     occupation 
      1      -7.8673      2.00000
      2      -7.5567      2.00000
      3      -5.8549      2.00000
      4      -5.7478      2.00000
      5      -5.7152      2.00000
      6      -5.6865      2.00000
      7      -5.6252      2.00000
      8      -5.5252      2.00000
      9      -5.4458      2.00000
     10      -5.3831      2.00000
     11      -5.1094      2.00000
     12      -3.9788      2.00000
     13       0.6091      2.00000
     14       1.8274      2.00000
     15       3.6710      2.00000
     16       5.6675      2.00000
     17       5.8935      2.00000
     18       7.2081      2.00000
     19      14.5269      0.00000
     20      16.1340      0.00000
     21      16.4749      0.00000
     22      17.0063      0.00000
     23      18.3396      0.00000
     24      19.3079      0.00000
     25      20.7946      0.00000
     26      23.2076      0.00000
     27      23.6582      0.00000
     28      27.7473      0.00000
     29      28.5787      0.00000
     30      29.9724      0.00000
     31      30.7665      0.00000
     32      31.8598      0.00000

 k-point    91 :       0.2500    0.3750    0.1667
  band No.  band energies     occupation 
      1      -7.7186      2.00000
      2      -7.6167      2.00000
      3      -5.8909      2.00000
      4      -5.7985      2.00000
      5      -5.7140      2.00000
      6      -5.5994      2.00000
      7      -5.5498      2.00000
      8      -5.4841      2.00000
      9      -5.4295      2.00000
     10      -5.3769      2.00000
     11      -4.4922      2.00000
     12      -3.5983      2.00000
     13       1.1978      2.00000
     14       1.9271      2.00000
     15       3.1339      2.00000
     16       4.9842      2.00000
     17       5.3074      2.00000
     18       5.8313      2.00000
     19      14.2391      0.00000
     20      14.9197      0.00000
     21      15.4098      0.00000
     22      17.1669      0.00000
     23      18.3291      0.00000
     24      19.1443      0.00000
     25      21.5814      0.00000
     26      23.1119      0.00000
     27      24.1352      0.00000
     28      27.2040      0.00000
     29      29.2155      0.00000
     30      30.3754      0.00000
     31      31.2565      0.00000
     32      32.9959      0.00000

 k-point    92 :       0.3750    0.3750    0.1667
  band No.  band energies     occupation 
      1      -7.7583      2.00000
      2      -7.7041      2.00000
      3      -5.9178      2.00000
      4      -5.8681      2.00000
      5      -5.6992      2.00000
      6      -5.5617      2.00000
      7      -5.4866      2.00000
      8      -5.4447      2.00000
      9      -5.3480      2.00000
     10      -5.3226      2.00000
     11      -3.5000      2.00000
     12      -3.2315      2.00000
     13       1.5277      2.00000
     14       1.9162      2.00000
     15       2.4624      2.00000
     16       4.3593      2.00000
     17       5.1920      2.00000
     18       5.8428      2.00000
     19      12.2479      0.00000
     20      12.9597      0.00000
     21      14.4595      0.00000
     22      16.8380      0.00000
     23      18.9266      0.00000
     24      19.8375      0.00000
     25      22.5090      0.00000
     26      22.8311      0.00000
     27      24.2516      0.00000
     28      27.1630      0.00000
     29      29.7850      0.00000
     30      30.2975      0.00000
     31      30.7147      0.00000
     32      33.6978      0.00000

 k-point    93 :       0.5000    0.3750    0.1667
  band No.  band energies     occupation 
      1      -7.9214      2.00000
      2      -7.7495      2.00000
      3      -5.9100      2.00000
      4      -5.8992      2.00000
      5      -5.6707      2.00000
      6      -5.5855      2.00000
      7      -5.4809      2.00000
      8      -5.4355      2.00000
      9      -5.2779      2.00000
     10      -5.2668      2.00000
     11      -3.5038      2.00000
     12      -2.6310      2.00000
     13       1.4385      2.00000
     14       1.7144      2.00000
     15       3.5049      2.00000
     16       4.1098      2.00000
     17       4.8376      2.00000
     18       6.4693      2.00000
     19      10.6198      0.00000
     20      11.5619      0.00000
     21      14.4409      0.00000
     22      16.5543      0.00000
     23      19.0156      0.00000
     24      20.8215      0.00000
     25      21.6333      0.00000
     26      22.4861      0.00000
     27      24.3854      0.00000
     28      27.9589      0.00000
     29      29.4006      0.00000
     30      29.9915      0.00000
     31      31.6937      0.00000
     32      32.7735      0.00000

 k-point    94 :      -0.3750    0.3750    0.1667
  band No.  band energies     occupation 
      1      -8.0707      2.00000
      2      -7.7733      2.00000
      3      -5.8948      2.00000
      4      -5.8696      2.00000
      5      -5.6846      2.00000
      6      -5.5959      2.00000
      7      -5.4967      2.00000
      8      -5.4504      2.00000
      9      -5.3251      2.00000
     10      -5.2741      2.00000
     11      -4.2396      2.00000
     12      -2.6064      2.00000
     13       2.2989      2.00000
     14       2.3063      2.00000
     15       2.9112      2.00000
     16       4.8047      2.00000
     17       4.8421      2.00000
     18       6.6676      2.00000
     19      10.6139      0.00000
     20      11.5605      0.00000
     21      15.1588      0.00000
     22      16.7949      0.00000
     23      18.1702      0.00000
     24      21.0565      0.00000
     25      21.5393      0.00000
     26      22.1415      0.00000
     27      23.9470      0.00000
     28      27.6408      0.00000
     29      28.5959      0.00000
     30      30.5483      0.00000
     31      31.1819      0.00000
     32      32.8757      0.00000

 k-point    95 :      -0.2500    0.3750    0.1667
  band No.  band energies     occupation 
      1      -8.1796      2.00000
      2      -7.7468      2.00000
      3      -5.8713      2.00000
      4      -5.8421      2.00000
      5      -5.7061      2.00000
      6      -5.6199      2.00000
      7      -5.5760      2.00000
      8      -5.4789      2.00000
      9      -5.4140      2.00000
     10      -5.3345      2.00000
     11      -4.8094      2.00000
     12      -3.1200      2.00000
     13       1.5648      2.00000
     14       2.9758      2.00000
     15       3.2573      2.00000
     16       5.0975      2.00000
     17       5.6396      2.00000
     18       6.9438      2.00000
     19      12.2372      0.00000
     20      12.9376      0.00000
     21      15.9225      0.00000
     22      16.7710      0.00000
     23      17.9903      0.00000
     24      19.7461      0.00000
     25      21.4401      0.00000
     26      21.8937      0.00000
     27      24.4254      0.00000
     28      26.4133      0.00000
     29      27.8969      0.00000
     30      30.4145      0.00000
     31      31.6715      0.00000
     32      33.3892      0.00000

 k-point    96 :      -0.1250    0.3750    0.1667
  band No.  band energies     occupation 
      1      -8.1987      2.00000
      2      -7.6759      2.00000
      3      -5.8823      2.00000
      4      -5.8052      2.00000
      5      -5.7878      2.00000
      6      -5.6918      2.00000
      7      -5.5962      2.00000
      8      -5.5012      2.00000
      9      -5.4584      2.00000
     10      -5.3625      2.00000
     11      -5.0917      2.00000
     12      -3.6614      2.00000
     13       0.7990      2.00000
     14       2.4985      2.00000
     15       3.2078      2.00000
     16       6.1576      2.00000
     17       6.9033      2.00000
     18       7.3982      2.00000
     19      14.2036      0.00000
     20      14.6730      0.00000
     21      15.7227      0.00000
     22      16.7600      0.00000
     23      17.8967      0.00000
     24      18.2231      0.00000
     25      22.0029      0.00000
     26      22.3989      0.00000
     27      25.3041      0.00000
     28      26.0709      0.00000
     29      27.2490      0.00000
     30      29.6465      0.00000
     31      30.9571      0.00000
     32      32.4066      0.00000

 k-point    97 :       0.0000    0.5000    0.1667
  band No.  band energies     occupation 
      1      -7.6866      2.00000
      2      -7.5247      2.00000
      3      -5.8746      2.00000
      4      -5.7771      2.00000
      5      -5.7272      2.00000
      6      -5.7229      2.00000
      7      -5.5828      2.00000
      8      -5.5757      2.00000
      9      -5.4156      2.00000
     10      -5.3703      2.00000
     11      -4.7270      2.00000
     12      -4.5508      2.00000
     13       0.4012      2.00000
     14       0.9071      2.00000
     15       4.1939      2.00000
     16       5.1392      2.00000
     17       7.2834      2.00000
     18       8.1251      2.00000
     19      14.6597      0.00000
     20      14.8005      0.00000
     21      17.1139      0.00000
     22      17.2873      0.00000
     23      17.9097      0.00000
     24      17.9516      0.00000
     25      22.0780      0.00000
     26      22.7545      0.00000
     27      24.7900      0.00000
     28      25.7683      0.00000
     29      28.4464      0.00000
     30      29.4080      0.00000
     31      30.5503      0.00000
     32      31.3813      0.00000

 k-point    98 :       0.1250    0.5000    0.1667
  band No.  band energies     occupation 
      1      -7.7243      2.00000
      2      -7.5665      2.00000
      3      -5.8623      2.00000
      4      -5.7978      2.00000
      5      -5.7680      2.00000
      6      -5.7137      2.00000
      7      -5.5919      2.00000
      8      -5.5026      2.00000
      9      -5.4238      2.00000
     10      -5.3536      2.00000
     11      -4.5709      2.00000
     12      -4.2113      2.00000
     13       0.5499      2.00000
     14       1.1571      2.00000
     15       4.2054      2.00000
     16       5.1563      2.00000
     17       6.4409      2.00000
     18       7.3726      2.00000
     19      14.6321      0.00000
     20      15.2242      0.00000
     21      16.1066      0.00000
     22      16.8913      0.00000
     23      17.7830      0.00000
     24      18.2311      0.00000
     25      21.2073      0.00000
     26      23.3122      0.00000
     27      24.5843      0.00000
     28      26.4346      0.00000
     29      28.5122      0.00000
     30      30.1199      0.00000
     31      31.3613      0.00000
     32      31.9355      0.00000

 k-point    99 :       0.2500    0.5000    0.1667
  band No.  band energies     occupation 
      1      -7.8238      2.00000
      2      -7.6596      2.00000
      3      -5.9052      2.00000
      4      -5.8555      2.00000
      5      -5.6997      2.00000
      6      -5.6097      2.00000
      7      -5.5593      2.00000
      8      -5.4589      2.00000
      9      -5.3934      2.00000
     10      -5.3288      2.00000
     11      -4.1324      2.00000
     12      -3.4403      2.00000
     13       1.0202      2.00000
     14       1.7093      2.00000
     15       3.9364      2.00000
     16       4.4169      2.00000
     17       5.7334      2.00000
     18       6.2950      2.00000
     19      12.7607      0.00000
     20      13.5697      0.00000
     21      15.3001      0.00000
     22      16.6921      0.00000
     23      18.4067      0.00000
     24      19.5009      0.00000
     25      21.5998      0.00000
     26      22.7798      0.00000
     27      24.2904      0.00000
     28      26.7042      0.00000
     29      29.1785      0.00000
     30      30.6664      0.00000
     31      31.2265      0.00000
     32      33.6791      0.00000

 k-point   100 :       0.3750    0.5000    0.1667
  band No.  band energies     occupation 
      1      -7.9214      2.00000
      2      -7.7495      2.00000
      3      -5.9100      2.00000
      4      -5.8992      2.00000
      5      -5.6707      2.00000
      6      -5.5855      2.00000
      7      -5.4809      2.00000
      8      -5.4355      2.00000
      9      -5.2778      2.00000
     10      -5.2668      2.00000
     11      -3.5038      2.00000
     12      -2.6310      2.00000
     13       1.4385      2.00000
     14       1.7144      2.00000
     15       3.5049      2.00000
     16       4.1098      2.00000
     17       4.8377      2.00000
     18       6.4693      2.00000
     19      10.6198      0.00000
     20      11.5619      0.00000
     21      14.4409      0.00000
     22      16.5543      0.00000
     23      19.0155      0.00000
     24      20.8215      0.00000
     25      21.6334      0.00000
     26      22.4862      0.00000
     27      24.3853      0.00000
     28      27.9589      0.00000
     29      29.4006      0.00000
     30      29.9917      0.00000
     31      31.6937      0.00000
     32      32.7735      0.00000

 k-point   101 :       0.5000    0.5000    0.1667
  band No.  band energies     occupation 
      1      -7.9597      2.00000
      2      -7.7864      2.00000
      3      -5.9293      2.00000
      4      -5.8968      2.00000
      5      -5.6513      2.00000
      6      -5.5935      2.00000
      7      -5.4654      2.00000
      8      -5.4276      2.00000
      9      -5.2242      2.00000
     10      -5.2125      2.00000
     11      -3.0892      2.00000
     12      -2.2981      2.00000
     13       0.9736      2.00000
     14       1.8807      2.00000
     15       3.5394      2.00000
     16       4.4482      2.00000
     17       4.4723      2.00000
     18       6.3982      2.00000
     19       9.7631      0.00000
     20      10.7475      0.00000
     21      14.0648      0.00000
     22      16.3745      0.00000
     23      19.4257      0.00000
     24      20.9255      0.00000
     25      21.8470      0.00000
     26      22.0195      0.00000
     27      24.9118      0.00000
     28      28.7149      0.00000
     29      29.4520      0.00000
     30      29.6885      0.00000
     31      31.8859      0.00000
     32      32.4703      0.00000

 k-point   102 :      -0.3750    0.5000    0.1667
  band No.  band energies     occupation 
      1      -7.9214      2.00000
      2      -7.7495      2.00000
      3      -5.9100      2.00000
      4      -5.8992      2.00000
      5      -5.6707      2.00000
      6      -5.5855      2.00000
      7      -5.4809      2.00000
      8      -5.4355      2.00000
      9      -5.2779      2.00000
     10      -5.2668      2.00000
     11      -3.5038      2.00000
     12      -2.6310      2.00000
     13       1.4385      2.00000
     14       1.7144      2.00000
     15       3.5049      2.00000
     16       4.1098      2.00000
     17       4.8376      2.00000
     18       6.4693      2.00000
     19      10.6198      0.00000
     20      11.5619      0.00000
     21      14.4409      0.00000
     22      16.5543      0.00000
     23      19.0156      0.00000
     24      20.8215      0.00000
     25      21.6333      0.00000
     26      22.4861      0.00000
     27      24.3854      0.00000
     28      27.9589      0.00000
     29      29.4006      0.00000
     30      29.9915      0.00000
     31      31.6937      0.00000
     32      32.7735      0.00000

 k-point   103 :      -0.2500    0.5000    0.1667
  band No.  band energies     occupation 
      1      -7.8238      2.00000
      2      -7.6596      2.00000
      3      -5.9052      2.00000
      4      -5.8555      2.00000
      5      -5.6997      2.00000
      6      -5.6096      2.00000
      7      -5.5593      2.00000
      8      -5.4589      2.00000
      9      -5.3934      2.00000
     10      -5.3288      2.00000
     11      -4.1325      2.00000
     12      -3.4403      2.00000
     13       1.0203      2.00000
     14       1.7093      2.00000
     15       3.9364      2.00000
     16       4.4169      2.00000
     17       5.7334      2.00000
     18       6.2950      2.00000
     19      12.7607      0.00000
     20      13.5697      0.00000
     21      15.3002      0.00000
     22      16.6922      0.00000
     23      18.4066      0.00000
     24      19.5010      0.00000
     25      21.5996      0.00000
     26      22.7799      0.00000
     27      24.2906      0.00000
     28      26.7042      0.00000
     29      29.1785      0.00000
     30      30.6662      0.00000
     31      31.2263      0.00000
     32      33.6791      0.00000

 k-point   104 :      -0.1250    0.5000    0.1667
  band No.  band energies     occupation 
      1      -7.7243      2.00000
      2      -7.5665      2.00000
      3      -5.8623      2.00000
      4      -5.7978      2.00000
      5      -5.7680      2.00000
      6      -5.7137      2.00000
      7      -5.5919      2.00000
      8      -5.5026      2.00000
      9      -5.4238      2.00000
     10      -5.3536      2.00000
     11      -4.5709      2.00000
     12      -4.2113      2.00000
     13       0.5500      2.00000
     14       1.1570      2.00000
     15       4.2054      2.00000
     16       5.1564      2.00000
     17       6.4409      2.00000
     18       7.3726      2.00000
     19      14.6319      0.00000
     20      15.2244      0.00000
     21      16.1067      0.00000
     22      16.8914      0.00000
     23      17.7829      0.00000
     24      18.2311      0.00000
     25      21.2072      0.00000
     26      23.3123      0.00000
     27      24.5844      0.00000
     28      26.4347      0.00000
     29      28.5122      0.00000
     30      30.1200      0.00000
     31      31.3612      0.00000
     32      31.9354      0.00000

 k-point   105 :      -0.0000   -0.3750    0.1667
  band No.  band energies     occupation 
      1      -8.0793      2.00000
      2      -7.5932      2.00000
      3      -5.8910      2.00000
      4      -5.8021      2.00000
      5      -5.7492      2.00000
      6      -5.6845      2.00000
      7      -5.5968      2.00000
      8      -5.5590      2.00000
      9      -5.4524      2.00000
     10      -5.3735      2.00000
     11      -5.2223      2.00000
     12      -4.0082      2.00000
     13       0.4692      2.00000
     14       1.9987      2.00000
     15       3.3016      2.00000
     16       6.1301      2.00000
     17       7.1488      2.00000
     18       8.1048      2.00000
     19      14.0774      0.00000
     20      15.3439      0.00000
     21      16.3572      0.00000
     22      17.3661      0.00000
     23      18.0674      0.00000
     24      18.5104      0.00000
     25      22.4520      0.00000
     26      23.2913      0.00000
     27      23.7629      0.00000
     28      26.8040      0.00000
     29      27.9574      0.00000
     30      29.0249      0.00000
     31      30.3874      0.00000
     32      31.0414      0.00000

 k-point   106 :       0.1250   -0.3750    0.1667
  band No.  band energies     occupation 
      1      -8.1986      2.00000
      2      -7.6759      2.00000
      3      -5.8823      2.00000
      4      -5.8052      2.00000
      5      -5.7878      2.00000
      6      -5.6918      2.00000
      7      -5.5962      2.00000
      8      -5.5011      2.00000
      9      -5.4584      2.00000
     10      -5.3625      2.00000
     11      -5.0917      2.00000
     12      -3.6615      2.00000
     13       0.7989      2.00000
     14       2.4985      2.00000
     15       3.2078      2.00000
     16       6.1575      2.00000
     17       6.9033      2.00000
     18       7.3982      2.00000
     19      14.2035      0.00000
     20      14.6731      0.00000
     21      15.7227      0.00000
     22      16.7600      0.00000
     23      17.8967      0.00000
     24      18.2230      0.00000
     25      22.0031      0.00000
     26      22.3988      0.00000
     27      25.3040      0.00000
     28      26.0708      0.00000
     29      27.2490      0.00000
     30      29.6465      0.00000
     31      30.9572      0.00000
     32      32.4064      0.00000

 k-point   107 :       0.2500   -0.3750    0.1667
  band No.  band energies     occupation 
      1      -8.1796      2.00000
      2      -7.7468      2.00000
      3      -5.8713      2.00000
      4      -5.8421      2.00000
      5      -5.7061      2.00000
      6      -5.6199      2.00000
      7      -5.5760      2.00000
      8      -5.4789      2.00000
      9      -5.4140      2.00000
     10      -5.3345      2.00000
     11      -4.8094      2.00000
     12      -3.1200      2.00000
     13       1.5647      2.00000
     14       2.9758      2.00000
     15       3.2574      2.00000
     16       5.0975      2.00000
     17       5.6396      2.00000
     18       6.9438      2.00000
     19      12.2372      0.00000
     20      12.9376      0.00000
     21      15.9225      0.00000
     22      16.7709      0.00000
     23      17.9903      0.00000
     24      19.7461      0.00000
     25      21.4400      0.00000
     26      21.8938      0.00000
     27      24.4252      0.00000
     28      26.4133      0.00000
     29      27.8970      0.00000
     30      30.4146      0.00000
     31      31.6719      0.00000
     32      33.3891      0.00000

 k-point   108 :       0.3750   -0.3750    0.1667
  band No.  band energies     occupation 
      1      -8.0707      2.00000
      2      -7.7733      2.00000
      3      -5.8948      2.00000
      4      -5.8696      2.00000
      5      -5.6846      2.00000
      6      -5.5959      2.00000
      7      -5.4967      2.00000
      8      -5.4504      2.00000
      9      -5.3251      2.00000
     10      -5.2741      2.00000
     11      -4.2396      2.00000
     12      -2.6064      2.00000
     13       2.2989      2.00000
     14       2.3063      2.00000
     15       2.9111      2.00000
     16       4.8047      2.00000
     17       4.8422      2.00000
     18       6.6676      2.00000
     19      10.6140      0.00000
     20      11.5605      0.00000
     21      15.1587      0.00000
     22      16.7949      0.00000
     23      18.1700      0.00000
     24      21.0566      0.00000
     25      21.5393      0.00000
     26      22.1415      0.00000
     27      23.9469      0.00000
     28      27.6408      0.00000
     29      28.5960      0.00000
     30      30.5487      0.00000
     31      31.1820      0.00000
     32      32.8756      0.00000

 k-point   109 :       0.5000   -0.3750    0.1667
  band No.  band energies     occupation 
      1      -7.9214      2.00000
      2      -7.7495      2.00000
      3      -5.9100      2.00000
      4      -5.8992      2.00000
      5      -5.6707      2.00000
      6      -5.5855      2.00000
      7      -5.4809      2.00000
      8      -5.4355      2.00000
      9      -5.2778      2.00000
     10      -5.2668      2.00000
     11      -3.5038      2.00000
     12      -2.6310      2.00000
     13       1.4385      2.00000
     14       1.7144      2.00000
     15       3.5049      2.00000
     16       4.1098      2.00000
     17       4.8377      2.00000
     18       6.4693      2.00000
     19      10.6198      0.00000
     20      11.5619      0.00000
     21      14.4409      0.00000
     22      16.5543      0.00000
     23      19.0155      0.00000
     24      20.8215      0.00000
     25      21.6334      0.00000
     26      22.4862      0.00000
     27      24.3853      0.00000
     28      27.9589      0.00000
     29      29.4006      0.00000
     30      29.9917      0.00000
     31      31.6937      0.00000
     32      32.7735      0.00000

 k-point   110 :      -0.3750   -0.3750    0.1667
  band No.  band energies     occupation 
      1      -7.7583      2.00000
      2      -7.7041      2.00000
      3      -5.9178      2.00000
      4      -5.8681      2.00000
      5      -5.6992      2.00000
      6      -5.5617      2.00000
      7      -5.4866      2.00000
      8      -5.4447      2.00000
      9      -5.3480      2.00000
     10      -5.3226      2.00000
     11      -3.5000      2.00000
     12      -3.2315      2.00000
     13       1.5277      2.00000
     14       1.9162      2.00000
     15       2.4624      2.00000
     16       4.3593      2.00000
     17       5.1920      2.00000
     18       5.8428      2.00000
     19      12.2479      0.00000
     20      12.9597      0.00000
     21      14.4595      0.00000
     22      16.8380      0.00000
     23      18.9266      0.00000
     24      19.8375      0.00000
     25      22.5090      0.00000
     26      22.8311      0.00000
     27      24.2516      0.00000
     28      27.1630      0.00000
     29      29.7850      0.00000
     30      30.2975      0.00000
     31      30.7147      0.00000
     32      33.6978      0.00000

 k-point   111 :      -0.2500   -0.3750    0.1667
  band No.  band energies     occupation 
      1      -7.7186      2.00000
      2      -7.6167      2.00000
      3      -5.8909      2.00000
      4      -5.7985      2.00000
      5      -5.7140      2.00000
      6      -5.5994      2.00000
      7      -5.5498      2.00000
      8      -5.4841      2.00000
      9      -5.4295      2.00000
     10      -5.3769      2.00000
     11      -4.4922      2.00000
     12      -3.5983      2.00000
     13       1.1978      2.00000
     14       1.9271      2.00000
     15       3.1339      2.00000
     16       4.9842      2.00000
     17       5.3073      2.00000
     18       5.8314      2.00000
     19      14.2390      0.00000
     20      14.9198      0.00000
     21      15.4099      0.00000
     22      17.1670      0.00000
     23      18.3290      0.00000
     24      19.1443      0.00000
     25      21.5812      0.00000
     26      23.1121      0.00000
     27      24.1353      0.00000
     28      27.2041      0.00000
     29      29.2155      0.00000
     30      30.3753      0.00000
     31      31.2562      0.00000
     32      32.9960      0.00000

 k-point   112 :      -0.1250   -0.3750    0.1667
  band No.  band energies     occupation 
      1      -7.8673      2.00000
      2      -7.5567      2.00000
      3      -5.8549      2.00000
      4      -5.7478      2.00000
      5      -5.7152      2.00000
      6      -5.6865      2.00000
      7      -5.6252      2.00000
      8      -5.5252      2.00000
      9      -5.4458      2.00000
     10      -5.3831      2.00000
     11      -5.1093      2.00000
     12      -3.9788      2.00000
     13       0.6091      2.00000
     14       1.8275      2.00000
     15       3.6710      2.00000
     16       5.6675      2.00000
     17       5.8934      2.00000
     18       7.2080      2.00000
     19      14.5268      0.00000
     20      16.1341      0.00000
     21      16.4750      0.00000
     22      17.0064      0.00000
     23      18.3394      0.00000
     24      19.3079      0.00000
     25      20.7945      0.00000
     26      23.2077      0.00000
     27      23.6583      0.00000
     28      27.7473      0.00000
     29      28.5789      0.00000
     30      29.9724      0.00000
     31      30.7665      0.00000
     32      31.8597      0.00000

 k-point   113 :      -0.0000   -0.2500    0.1667
  band No.  band energies     occupation 
      1      -8.8213      2.00000
      2      -7.8621      2.00000
      3      -5.9137      2.00000
      4      -5.8323      2.00000
      5      -5.7352      2.00000
      6      -5.6117      2.00000
      7      -5.6029      2.00000
      8      -5.5623      2.00000
      9      -5.5148      2.00000
     10      -5.4401      2.00000
     11      -5.3516      2.00000
     12      -3.9308      2.00000
     13       1.1533      2.00000
     14       2.9715      2.00000
     15       3.9042      2.00000
     16       6.8001      2.00000
     17       7.2108      2.00000
     18       8.0304      2.00000
     19      13.3930      0.00000
     20      14.1655      0.00000
     21      17.0331      0.00000
     22      17.7176      0.00000
     23      18.5980      0.00000
     24      19.4170      0.00000
     25      22.3260      0.00000
     26      23.0726      0.00000
     27      23.8823      0.00000
     28      25.9924      0.00000
     29      27.3152      0.00000
     30      29.1977      0.00000
     31      30.0714      0.00000
     32      30.7298      0.00000

 k-point   114 :       0.1250   -0.2500    0.1667
  band No.  band energies     occupation 
      1      -8.8511      2.00000
      2      -7.9150      2.00000
      3      -5.8746      2.00000
      4      -5.7978      2.00000
      5      -5.7213      2.00000
      6      -5.6732      2.00000
      7      -5.6109      2.00000
      8      -5.5470      2.00000
      9      -5.5245      2.00000
     10      -5.3997      2.00000
     11      -5.3161      2.00000
     12      -3.7448      2.00000
     13       1.4161      2.00000
     14       3.2806      2.00000
     15       4.4864      2.00000
     16       6.3453      2.00000
     17       6.8869      2.00000
     18       7.5781      2.00000
     19      13.5310      0.00000
     20      13.7587      0.00000
     21      16.7778      0.00000
     22      17.5530      0.00000
     23      18.5142      0.00000
     24      19.0940      0.00000
     25      20.9325      0.00000
     26      21.4378      0.00000
     27      24.5130      0.00000
     28      25.8716      0.00000
     29      27.3118      0.00000
     30      28.6281      0.00000
     31      30.1948      0.00000
     32      32.8324      0.00000

 k-point   115 :       0.2500   -0.2500    0.1667
  band No.  band energies     occupation 
      1      -8.5885      2.00000
      2      -7.8588      2.00000
      3      -5.8203      2.00000
      4      -5.7914      2.00000
      5      -5.7402      2.00000
      6      -5.6140      2.00000
      7      -5.5950      2.00000
      8      -5.5561      2.00000
      9      -5.5105      2.00000
     10      -5.3270      2.00000
     11      -5.2341      2.00000
     12      -3.4116      2.00000
     13       1.9136      2.00000
     14       3.3943      2.00000
     15       4.5413      2.00000
     16       5.1947      2.00000
     17       5.6461      2.00000
     18       7.3011      2.00000
     19      12.9454      0.00000
     20      13.3360      0.00000
     21      16.5456      0.00000
     22      17.2723      0.00000
     23      18.0049      0.00000
     24      19.9520      0.00000
     25      20.4320      0.00000
     26      20.8342      0.00000
     27      25.2543      0.00000
     28      25.6798      0.00000
     29      26.6768      0.00000
     30      29.1735      0.00000
     31      32.5537      0.00000
     32      33.3053      0.00000

 k-point   116 :       0.3750   -0.2500    0.1667
  band No.  band energies     occupation 
      1      -8.1796      2.00000
      2      -7.7468      2.00000
      3      -5.8713      2.00000
      4      -5.8421      2.00000
      5      -5.7061      2.00000
      6      -5.6199      2.00000
      7      -5.5760      2.00000
      8      -5.4789      2.00000
      9      -5.4140      2.00000
     10      -5.3345      2.00000
     11      -4.8094      2.00000
     12      -3.1200      2.00000
     13       1.5647      2.00000
     14       2.9758      2.00000
     15       3.2574      2.00000
     16       5.0975      2.00000
     17       5.6396      2.00000
     18       6.9438      2.00000
     19      12.2372      0.00000
     20      12.9376      0.00000
     21      15.9225      0.00000
     22      16.7709      0.00000
     23      17.9903      0.00000
     24      19.7461      0.00000
     25      21.4400      0.00000
     26      21.8938      0.00000
     27      24.4252      0.00000
     28      26.4133      0.00000
     29      27.8970      0.00000
     30      30.4146      0.00000
     31      31.6719      0.00000
     32      33.3891      0.00000

 k-point   117 :       0.5000   -0.2500    0.1667
  band No.  band energies     occupation 
      1      -7.8238      2.00000
      2      -7.6596      2.00000
      3      -5.9052      2.00000
      4      -5.8555      2.00000
      5      -5.6997      2.00000
      6      -5.6097      2.00000
      7      -5.5593      2.00000
      8      -5.4589      2.00000
      9      -5.3934      2.00000
     10      -5.3288      2.00000
     11      -4.1324      2.00000
     12      -3.4403      2.00000
     13       1.0202      2.00000
     14       1.7093      2.00000
     15       3.9364      2.00000
     16       4.4169      2.00000
     17       5.7334      2.00000
     18       6.2950      2.00000
     19      12.7607      0.00000
     20      13.5697      0.00000
     21      15.3001      0.00000
     22      16.6921      0.00000
     23      18.4067      0.00000
     24      19.5009      0.00000
     25      21.5998      0.00000
     26      22.7798      0.00000
     27      24.2904      0.00000
     28      26.7042      0.00000
     29      29.1785      0.00000
     30      30.6664      0.00000
     31      31.2265      0.00000
     32      33.6791      0.00000

 k-point   118 :      -0.3750   -0.2500    0.1667
  band No.  band energies     occupation 
      1      -7.7186      2.00000
      2      -7.6167      2.00000
      3      -5.8909      2.00000
      4      -5.7985      2.00000
      5      -5.7140      2.00000
      6      -5.5994      2.00000
      7      -5.5498      2.00000
      8      -5.4841      2.00000
      9      -5.4295      2.00000
     10      -5.3769      2.00000
     11      -4.4922      2.00000
     12      -3.5983      2.00000
     13       1.1978      2.00000
     14       1.9271      2.00000
     15       3.1339      2.00000
     16       4.9842      2.00000
     17       5.3074      2.00000
     18       5.8313      2.00000
     19      14.2391      0.00000
     20      14.9197      0.00000
     21      15.4098      0.00000
     22      17.1669      0.00000
     23      18.3291      0.00000
     24      19.1443      0.00000
     25      21.5814      0.00000
     26      23.1119      0.00000
     27      24.1352      0.00000
     28      27.2040      0.00000
     29      29.2155      0.00000
     30      30.3754      0.00000
     31      31.2565      0.00000
     32      32.9959      0.00000

 k-point   119 :      -0.2500   -0.2500    0.1667
  band No.  band energies     occupation 
      1      -8.0169      2.00000
      2      -7.6035      2.00000
      3      -5.8356      2.00000
      4      -5.7211      2.00000
      5      -5.7031      2.00000
      6      -5.6134      2.00000
      7      -5.5730      2.00000
      8      -5.5699      2.00000
      9      -5.4839      2.00000
     10      -5.4364      2.00000
     11      -5.2352      2.00000
     12      -3.7004      2.00000
     13       1.3933      2.00000
     14       2.9007      2.00000
     15       3.4403      2.00000
     16       3.9670      2.00000
     17       5.8688      2.00000
     18       6.4035      2.00000
     19      15.0983      0.00000
     20      15.7261      0.00000
     21      16.4031      0.00000
     22      17.6747      0.00000
     23      18.3660      0.00000
     24      19.0119      0.00000
     25      22.2119      0.00000
     26      22.5260      0.00000
     27      23.4093      0.00000
     28      27.5214      0.00000
     29      29.4748      0.00000
     30      30.0020      0.00000
     31      31.5182      0.00000
     32      33.0691      0.00000

 k-point   120 :      -0.1250   -0.2500    0.1667
  band No.  band energies     occupation 
      1      -8.4868      2.00000
      2      -7.7220      2.00000
      3      -5.8428      2.00000
      4      -5.7802      2.00000
      5      -5.7314      2.00000
      6      -5.6341      2.00000
      7      -5.6180      2.00000
      8      -5.5503      2.00000
      9      -5.5237      2.00000
     10      -5.4481      2.00000
     11      -5.3884      2.00000
     12      -3.9101      2.00000
     13       1.1883      2.00000
     14       3.1591      2.00000
     15       3.4737      2.00000
     16       5.3116      2.00000
     17       6.8486      2.00000
     18       7.1770      2.00000
     19      14.2325      0.00000
     20      15.5800      0.00000
     21      17.0687      0.00000
     22      17.7019      0.00000
     23      18.4529      0.00000
     24      19.3907      0.00000
     25      21.9579      0.00000
     26      23.6892      0.00000
     27      23.9559      0.00000
     28      26.6432      0.00000
     29      27.8530      0.00000
     30      29.1859      0.00000
     31      31.3527      0.00000
     32      32.0611      0.00000

 k-point   121 :      -0.0000   -0.1250    0.1667
  band No.  band energies     occupation 
      1      -9.4170      2.00000
      2      -8.1454      2.00000
      3      -5.9114      2.00000
      4      -5.8441      2.00000
      5      -5.7831      2.00000
      6      -5.6109      2.00000
      7      -5.5929      2.00000
      8      -5.5328      2.00000
      9      -5.4993      2.00000
     10      -5.4215      2.00000
     11      -5.3475      2.00000
     12      -4.0959      2.00000
     13       0.9254      2.00000
     14       4.4513      2.00000
     15       5.8554      2.00000
     16       6.7266      2.00000
     17       7.5738      2.00000
     18       8.0536      2.00000
     19      12.3760      0.00000
     20      12.5308      0.00000
     21      17.7495      0.00000
     22      18.6180      0.00000
     23      19.0757      0.00000
     24      20.2518      0.00000
     25      22.2697      0.00000
     26      22.7947      0.00000
     27      23.4145      0.00000
     28      25.0737      0.00000
     29      27.2346      0.00000
     30      28.4055      0.00000
     31      29.8796      0.00000
     32      31.4547      0.00000

 k-point   122 :       0.1250   -0.1250    0.1667
  band No.  band energies     occupation 
      1      -9.3190      2.00000
      2      -8.1150      2.00000
      3      -5.8610      2.00000
      4      -5.8381      2.00000
      5      -5.7471      2.00000
      6      -5.6431      2.00000
      7      -5.5992      2.00000
      8      -5.5668      2.00000
      9      -5.5218      2.00000
     10      -5.4232      2.00000
     11      -5.3260      2.00000
     12      -3.9814      2.00000
     13       1.0750      2.00000
     14       4.6418      2.00000
     15       6.1431      2.00000
     16       6.4555      2.00000
     17       6.5718      2.00000
     18       7.8841      2.00000
     19      12.7209      0.00000
     20      12.8721      0.00000
     21      18.1020      0.00000
     22      18.4083      0.00000
     23      19.0216      0.00000
     24      20.1969      0.00000
     25      20.5579      0.00000
     26      21.0919      0.00000
     27      23.1697      0.00000
     28      25.3361      0.00000
     29      27.8205      0.00000
     30      29.0699      0.00000
     31      29.6313      0.00000
     32      30.8713      0.00000

 k-point   123 :       0.2500   -0.1250    0.1667
  band No.  band energies     occupation 
      1      -8.8511      2.00000
      2      -7.9150      2.00000
      3      -5.8746      2.00000
      4      -5.7978      2.00000
      5      -5.7213      2.00000
      6      -5.6732      2.00000
      7      -5.6109      2.00000
      8      -5.5470      2.00000
      9      -5.5245      2.00000
     10      -5.3997      2.00000
     11      -5.3161      2.00000
     12      -3.7448      2.00000
     13       1.4161      2.00000
     14       3.2806      2.00000
     15       4.4864      2.00000
     16       6.3453      2.00000
     17       6.8869      2.00000
     18       7.5781      2.00000
     19      13.5310      0.00000
     20      13.7587      0.00000
     21      16.7778      0.00000
     22      17.5530      0.00000
     23      18.5142      0.00000
     24      19.0940      0.00000
     25      20.9325      0.00000
     26      21.4378      0.00000
     27      24.5130      0.00000
     28      25.8716      0.00000
     29      27.3118      0.00000
     30      28.6281      0.00000
     31      30.1948      0.00000
     32      32.8324      0.00000

 k-point   124 :       0.3750   -0.1250    0.1667
  band No.  band energies     occupation 
      1      -8.1986      2.00000
      2      -7.6759      2.00000
      3      -5.8823      2.00000
      4      -5.8052      2.00000
      5      -5.7878      2.00000
      6      -5.6918      2.00000
      7      -5.5962      2.00000
      8      -5.5011      2.00000
      9      -5.4584      2.00000
     10      -5.3625      2.00000
     11      -5.0917      2.00000
     12      -3.6615      2.00000
     13       0.7989      2.00000
     14       2.4985      2.00000
     15       3.2078      2.00000
     16       6.1575      2.00000
     17       6.9033      2.00000
     18       7.3982      2.00000
     19      14.2035      0.00000
     20      14.6731      0.00000
     21      15.7227      0.00000
     22      16.7600      0.00000
     23      17.8967      0.00000
     24      18.2230      0.00000
     25      22.0031      0.00000
     26      22.3988      0.00000
     27      25.3040      0.00000
     28      26.0708      0.00000
     29      27.2490      0.00000
     30      29.6465      0.00000
     31      30.9572      0.00000
     32      32.4064      0.00000

 k-point   125 :       0.5000   -0.1250    0.1667
  band No.  band energies     occupation 
      1      -7.7243      2.00000
      2      -7.5665      2.00000
      3      -5.8623      2.00000
      4      -5.7978      2.00000
      5      -5.7680      2.00000
      6      -5.7137      2.00000
      7      -5.5919      2.00000
      8      -5.5026      2.00000
      9      -5.4238      2.00000
     10      -5.3536      2.00000
     11      -4.5709      2.00000
     12      -4.2113      2.00000
     13       0.5499      2.00000
     14       1.1571      2.00000
     15       4.2054      2.00000
     16       5.1563      2.00000
     17       6.4409      2.00000
     18       7.3726      2.00000
     19      14.6321      0.00000
     20      15.2242      0.00000
     21      16.1066      0.00000
     22      16.8913      0.00000
     23      17.7830      0.00000
     24      18.2311      0.00000
     25      21.2073      0.00000
     26      23.3122      0.00000
     27      24.5843      0.00000
     28      26.4346      0.00000
     29      28.5122      0.00000
     30      30.1199      0.00000
     31      31.3613      0.00000
     32      31.9355      0.00000

 k-point   126 :      -0.3750   -0.1250    0.1667
  band No.  band energies     occupation 
      1      -7.8673      2.00000
      2      -7.5567      2.00000
      3      -5.8549      2.00000
      4      -5.7478      2.00000
      5      -5.7152      2.00000
      6      -5.6865      2.00000
      7      -5.6252      2.00000
      8      -5.5252      2.00000
      9      -5.4458      2.00000
     10      -5.3831      2.00000
     11      -5.1094      2.00000
     12      -3.9788      2.00000
     13       0.6091      2.00000
     14       1.8274      2.00000
     15       3.6710      2.00000
     16       5.6675      2.00000
     17       5.8935      2.00000
     18       7.2081      2.00000
     19      14.5269      0.00000
     20      16.1340      0.00000
     21      16.4749      0.00000
     22      17.0063      0.00000
     23      18.3396      0.00000
     24      19.3079      0.00000
     25      20.7946      0.00000
     26      23.2076      0.00000
     27      23.6582      0.00000
     28      27.7473      0.00000
     29      28.5787      0.00000
     30      29.9724      0.00000
     31      30.7665      0.00000
     32      31.8598      0.00000

 k-point   127 :      -0.2500   -0.1250    0.1667
  band No.  band energies     occupation 
      1      -8.4868      2.00000
      2      -7.7220      2.00000
      3      -5.8428      2.00000
      4      -5.7802      2.00000
      5      -5.7314      2.00000
      6      -5.6341      2.00000
      7      -5.6180      2.00000
      8      -5.5503      2.00000
      9      -5.5237      2.00000
     10      -5.4481      2.00000
     11      -5.3884      2.00000
     12      -3.9100      2.00000
     13       1.1884      2.00000
     14       3.1591      2.00000
     15       3.4737      2.00000
     16       5.3116      2.00000
     17       6.8487      2.00000
     18       7.1769      2.00000
     19      14.2326      0.00000
     20      15.5800      0.00000
     21      17.0686      0.00000
     22      17.7018      0.00000
     23      18.4530      0.00000
     24      19.3908      0.00000
     25      21.9578      0.00000
     26      23.6891      0.00000
     27      23.9559      0.00000
     28      26.6432      0.00000
     29      27.8530      0.00000
     30      29.1860      0.00000
     31      31.3524      0.00000
     32      32.0612      0.00000

 k-point   128 :      -0.1250   -0.1250    0.1667
  band No.  band energies     occupation 
      1      -9.1076      2.00000
      2      -7.9806      2.00000
      3      -5.8978      2.00000
      4      -5.8010      2.00000
      5      -5.8006      2.00000
      6      -5.6197      2.00000
      7      -5.5852      2.00000
      8      -5.5317      2.00000
      9      -5.5049      2.00000
     10      -5.4455      2.00000
     11      -5.3996      2.00000
     12      -4.0382      2.00000
     13       1.1102      2.00000
     14       3.9056      2.00000
     15       4.9317      2.00000
     16       5.7864      2.00000
     17       7.4953      2.00000
     18       7.5310      2.00000
     19      13.2510      0.00000
     20      13.9722      0.00000
     21      17.8842      0.00000
     22      18.2016      0.00000
     23      19.0110      0.00000
     24      19.0407      0.00000
     25      22.5329      0.00000
     26      23.6181      0.00000
     27      25.3513      0.00000
     28      25.3671      0.00000
     29      28.0185      0.00000
     30      28.1400      0.00000
     31      29.4786      0.00000
     32      31.7918      0.00000

 k-point   129 :      -0.0000    0.0000    0.3333
  band No.  band energies     occupation 
      1      -9.2988      2.00000
      2      -8.4712      2.00000
      3      -5.8992      2.00000
      4      -5.8371      2.00000
      5      -5.8264      2.00000
      6      -5.6060      2.00000
      7      -5.5307      2.00000
      8      -5.5273      2.00000
      9      -5.5032      2.00000
     10      -5.3805      2.00000
     11      -5.3769      2.00000
     12      -4.9751      2.00000
     13       2.3868      2.00000
     14       5.5812      2.00000
     15       5.8582      2.00000
     16       6.5866      2.00000
     17       7.3244      2.00000
     18       7.9919      2.00000
     19      12.0579      0.00000
     20      12.6391      0.00000
     21      17.6519      0.00000
     22      18.0735      0.00000
     23      18.1330      0.00000
     24      19.9860      0.00000
     25      22.1134      0.00000
     26      22.3321      0.00000
     27      23.6264      0.00000
     28      26.2083      0.00000
     29      28.6254      0.00000
     30      28.9882      0.00000
     31      29.2014      0.00000
     32      31.5583      0.00000

 k-point   130 :       0.1250   -0.0000    0.3333
  band No.  band energies     occupation 
      1      -9.0939      2.00000
      2      -8.3264      2.00000
      3      -5.8994      2.00000
      4      -5.8424      2.00000
      5      -5.7975      2.00000
      6      -5.6136      2.00000
      7      -5.5658      2.00000
      8      -5.5393      2.00000
      9      -5.4944      2.00000
     10      -5.4138      2.00000
     11      -5.3776      2.00000
     12      -4.8535      2.00000
     13       2.3696      2.00000
     14       4.9206      2.00000
     15       5.0197      2.00000
     16       6.7669      2.00000
     17       7.1038      2.00000
     18       7.7860      2.00000
     19      12.9639      0.00000
     20      13.1853      0.00000
     21      17.2891      0.00000
     22      17.6059      0.00000
     23      18.3534      0.00000
     24      19.3940      0.00000
     25      22.4268      0.00000
     26      22.6638      0.00000
     27      24.0016      0.00000
     28      26.0171      0.00000
     29      26.8080      0.00000
     30      30.0367      0.00000
     31      30.6564      0.00000
     32      32.0314      0.00000

 k-point   131 :       0.2500    0.0000    0.3333
  band No.  band energies     occupation 
      1      -8.5429      2.00000
      2      -7.9660      2.00000
      3      -5.9115      2.00000
      4      -5.8535      2.00000
      5      -5.7631      2.00000
      6      -5.6617      2.00000
      7      -5.5818      2.00000
      8      -5.5439      2.00000
      9      -5.4666      2.00000
     10      -5.3948      2.00000
     11      -5.3580      2.00000
     12      -4.6227      2.00000
     13       1.6534      2.00000
     14       3.0909      2.00000
     15       4.3231      2.00000
     16       6.8620      2.00000
     17       7.1751      2.00000
     18       7.7762      2.00000
     19      13.5422      0.00000
     20      14.4797      0.00000
     21      16.2161      0.00000
     22      17.1889      0.00000
     23      18.4320      0.00000
     24      18.9715      0.00000
     25      22.2872      0.00000
     26      22.8089      0.00000
     27      24.5457      0.00000
     28      26.6696      0.00000
     29      27.1623      0.00000
     30      29.0666      0.00000
     31      30.4881      0.00000
     32      32.2839      0.00000

 k-point   132 :       0.3750   -0.0000    0.3333
  band No.  band energies     occupation 
      1      -7.8918      2.00000
      2      -7.6068      2.00000
      3      -5.9011      2.00000
      4      -5.8511      2.00000
      5      -5.7708      2.00000
      6      -5.7367      2.00000
      7      -5.5443      2.00000
      8      -5.5068      2.00000
      9      -5.3882      2.00000
     10      -5.3770      2.00000
     11      -5.1722      2.00000
     12      -4.4557      2.00000
     13       0.2919      2.00000
     14       1.2310      2.00000
     15       4.8435      2.00000
     16       6.6183      2.00000
     17       7.3807      2.00000
     18       7.9182      2.00000
     19      13.3076      0.00000
     20      14.4477      0.00000
     21      16.4703      0.00000
     22      17.6726      0.00000
     23      17.9572      0.00000
     24      18.6202      0.00000
     25      22.1975      0.00000
     26      22.5096      0.00000
     27      24.0084      0.00000
     28      26.5033      0.00000
     29      28.5426      0.00000
     30      29.5357      0.00000
     31      30.5990      0.00000
     32      31.4041      0.00000

 k-point   133 :       0.5000    0.0000    0.3333
  band No.  band energies     occupation 
      1      -7.5772      2.00000
      2      -7.4851      2.00000
      3      -5.8928      2.00000
      4      -5.8514      2.00000
      5      -5.7550      2.00000
      6      -5.7494      2.00000
      7      -5.5328      2.00000
      8      -5.5070      2.00000
      9      -5.3681      2.00000
     10      -5.3439      2.00000
     11      -4.7546      2.00000
     12      -4.6497      2.00000
     13      -0.1251      2.00000
     14       0.2161      2.00000
     15       5.5242      2.00000
     16       6.1038      2.00000
     17       7.5061      2.00000
     18       7.9655      2.00000
     19      13.4289      0.00000
     20      13.7188      0.00000
     21      17.3761      0.00000
     22      17.4114      0.00000
     23      18.1637      0.00000
     24      18.3667      0.00000
     25      21.9661      0.00000
     26      22.4490      0.00000
     27      24.0269      0.00000
     28      25.0943      0.00000
     29      29.0370      0.00000
     30      30.4852      0.00000
     31      31.0461      0.00000
     32      31.8270      0.00000

 k-point   134 :      -0.3750    0.0000    0.3333
  band No.  band energies     occupation 
      1      -7.8918      2.00000
      2      -7.6068      2.00000
      3      -5.9011      2.00000
      4      -5.8512      2.00000
      5      -5.7708      2.00000
      6      -5.7367      2.00000
      7      -5.5442      2.00000
      8      -5.5068      2.00000
      9      -5.3882      2.00000
     10      -5.3770      2.00000
     11      -5.1723      2.00000
     12      -4.4556      2.00000
     13       0.2920      2.00000
     14       1.2310      2.00000
     15       4.8435      2.00000
     16       6.6183      2.00000
     17       7.3806      2.00000
     18       7.9182      2.00000
     19      13.3078      0.00000
     20      14.4475      0.00000
     21      16.4702      0.00000
     22      17.6727      0.00000
     23      17.9573      0.00000
     24      18.6202      0.00000
     25      22.1974      0.00000
     26      22.5097      0.00000
     27      24.0083      0.00000
     28      26.5034      0.00000
     29      28.5425      0.00000
     30      29.5357      0.00000
     31      30.5991      0.00000
     32      31.4044      0.00000

 k-point   135 :      -0.2500   -0.0000    0.3333
  band No.  band energies     occupation 
      1      -8.5429      2.00000
      2      -7.9660      2.00000
      3      -5.9115      2.00000
      4      -5.8535      2.00000
      5      -5.7631      2.00000
      6      -5.6617      2.00000
      7      -5.5817      2.00000
      8      -5.5439      2.00000
      9      -5.4666      2.00000
     10      -5.3948      2.00000
     11      -5.3580      2.00000
     12      -4.6227      2.00000
     13       1.6535      2.00000
     14       3.0908      2.00000
     15       4.3231      2.00000
     16       6.8620      2.00000
     17       7.1751      2.00000
     18       7.7762      2.00000
     19      13.5423      0.00000
     20      14.4796      0.00000
     21      16.2159      0.00000
     22      17.1889      0.00000
     23      18.4321      0.00000
     24      18.9716      0.00000
     25      22.2872      0.00000
     26      22.8088      0.00000
     27      24.5456      0.00000
     28      26.6696      0.00000
     29      27.1623      0.00000
     30      29.0666      0.00000
     31      30.4881      0.00000
     32      32.2843      0.00000

 k-point   136 :      -0.1250    0.0000    0.3333
  band No.  band energies     occupation 
      1      -9.0940      2.00000
      2      -8.3264      2.00000
      3      -5.8994      2.00000
      4      -5.8424      2.00000
      5      -5.7975      2.00000
      6      -5.6136      2.00000
      7      -5.5658      2.00000
      8      -5.5393      2.00000
      9      -5.4944      2.00000
     10      -5.4138      2.00000
     11      -5.3776      2.00000
     12      -4.8535      2.00000
     13       2.3696      2.00000
     14       4.9206      2.00000
     15       5.0197      2.00000
     16       6.7669      2.00000
     17       7.1038      2.00000
     18       7.7860      2.00000
     19      12.9639      0.00000
     20      13.1853      0.00000
     21      17.2892      0.00000
     22      17.6059      0.00000
     23      18.3534      0.00000
     24      19.3940      0.00000
     25      22.4267      0.00000
     26      22.6639      0.00000
     27      24.0017      0.00000
     28      26.0170      0.00000
     29      26.8079      0.00000
     30      30.0367      0.00000
     31      30.6564      0.00000
     32      32.0314      0.00000

 k-point   137 :       0.0000    0.1250    0.3333
  band No.  band energies     occupation 
      1      -9.0940      2.00000
      2      -8.3264      2.00000
      3      -5.8994      2.00000
      4      -5.8424      2.00000
      5      -5.7975      2.00000
      6      -5.6136      2.00000
      7      -5.5658      2.00000
      8      -5.5393      2.00000
      9      -5.4944      2.00000
     10      -5.4138      2.00000
     11      -5.3776      2.00000
     12      -4.8535      2.00000
     13       2.3696      2.00000
     14       4.9206      2.00000
     15       5.0197      2.00000
     16       6.7669      2.00000
     17       7.1038      2.00000
     18       7.7860      2.00000
     19      12.9639      0.00000
     20      13.1853      0.00000
     21      17.2892      0.00000
     22      17.6059      0.00000
     23      18.3534      0.00000
     24      19.3940      0.00000
     25      22.4267      0.00000
     26      22.6639      0.00000
     27      24.0017      0.00000
     28      26.0170      0.00000
     29      26.8079      0.00000
     30      30.0367      0.00000
     31      30.6564      0.00000
     32      32.0314      0.00000

 k-point   138 :       0.1250    0.1250    0.3333
  band No.  band energies     occupation 
      1      -8.8033      2.00000
      2      -8.1229      2.00000
      3      -5.8906      2.00000
      4      -5.8344      2.00000
      5      -5.7967      2.00000
      6      -5.6100      2.00000
      7      -5.5606      2.00000
      8      -5.5590      2.00000
      9      -5.4754      2.00000
     10      -5.4471      2.00000
     11      -5.4041      2.00000
     12      -4.7605      2.00000
     13       2.1542      2.00000
     14       4.0653      2.00000
     15       4.7791      2.00000
     16       6.1104      2.00000
     17       7.1282      2.00000
     18       7.1393      2.00000
     19      13.8620      0.00000
     20      14.3339      0.00000
     21      17.3227      0.00000
     22      17.3781      0.00000
     23      18.0490      0.00000
     24      18.4651      0.00000
     25      23.7685      0.00000
     26      24.0491      0.00000
     27      25.3477      0.00000
     28      25.4503      0.00000
     29      27.2443      0.00000
     30      29.3970      0.00000
     31      30.0564      0.00000
     32      31.2006      0.00000

 k-point   139 :       0.2500    0.1250    0.3333
  band No.  band energies     occupation 
      1      -8.2409      2.00000
      2      -7.7847      2.00000
      3      -5.8526      2.00000
      4      -5.8154      2.00000
      5      -5.7406      2.00000
      6      -5.6560      2.00000
      7      -5.5785      2.00000
      8      -5.5422      2.00000
      9      -5.5214      2.00000
     10      -5.4452      2.00000
     11      -5.3146      2.00000
     12      -4.5395      2.00000
     13       1.4041      2.00000
     14       2.6478      2.00000
     15       4.5762      2.00000
     16       5.7350      2.00000
     17       6.5483      2.00000
     18       7.1535      2.00000
     19      14.2248      0.00000
     20      15.7882      0.00000
     21      16.3582      0.00000
     22      17.5228      0.00000
     23      17.8737      0.00000
     24      18.5395      0.00000
     25      23.2209      0.00000
     26      23.8736      0.00000
     27      24.1048      0.00000
     28      27.3878      0.00000
     29      28.1891      0.00000
     30      28.7808      0.00000
     31      29.1248      0.00000
     32      31.1897      0.00000

 k-point   140 :       0.3750    0.1250    0.3333
  band No.  band energies     occupation 
      1      -7.7210      2.00000
      2      -7.5418      2.00000
      3      -5.8668      2.00000
      4      -5.8071      2.00000
      5      -5.7377      2.00000
      6      -5.7104      2.00000
      7      -5.5985      2.00000
      8      -5.4920      2.00000
      9      -5.4360      2.00000
     10      -5.3765      2.00000
     11      -4.9852      2.00000
     12      -4.3210      2.00000
     13       0.3250      2.00000
     14       1.0793      2.00000
     15       4.9209      2.00000
     16       6.1624      2.00000
     17       6.4113      2.00000
     18       6.9872      2.00000
     19      13.9396      0.00000
     20      15.0354      0.00000
     21      16.5282      0.00000
     22      17.4936      0.00000
     23      18.0476      0.00000
     24      18.8314      0.00000
     25      21.3453      0.00000
     26      23.0776      0.00000
     27      24.2643      0.00000
     28      26.5892      0.00000
     29      28.5710      0.00000
     30      29.8230      0.00000
     31      30.7920      0.00000
     32      31.3265      0.00000

 k-point   141 :       0.5000    0.1250    0.3333
  band No.  band energies     occupation 
      1      -7.6165      2.00000
      2      -7.5262      2.00000
      3      -5.8749      2.00000
      4      -5.8195      2.00000
      5      -5.7953      2.00000
      6      -5.7716      2.00000
      7      -5.5896      2.00000
      8      -5.4808      2.00000
      9      -5.3895      2.00000
     10      -5.3289      2.00000
     11      -4.5342      2.00000
     12      -4.3073      2.00000
     13       0.0711      2.00000
     14       0.4778      2.00000
     15       5.4304      2.00000
     16       5.9131      2.00000
     17       6.8050      2.00000
     18       7.1267      2.00000
     19      13.9510      0.00000
     20      14.1558      0.00000
     21      16.1802      0.00000
     22      16.8958      0.00000
     23      18.1711      0.00000
     24      18.7472      0.00000
     25      20.6078      0.00000
     26      22.3496      0.00000
     27      25.1537      0.00000
     28      26.1537      0.00000
     29      28.9157      0.00000
     30      29.9326      0.00000
     31      31.4445      0.00000
     32      32.1084      0.00000

 k-point   142 :      -0.3750    0.1250    0.3333
  band No.  band energies     occupation 
      1      -8.0056      2.00000
      2      -7.6974      2.00000
      3      -5.8836      2.00000
      4      -5.8343      2.00000
      5      -5.8079      2.00000
      6      -5.7495      2.00000
      7      -5.5993      2.00000
      8      -5.4972      2.00000
      9      -5.4106      2.00000
     10      -5.3618      2.00000
     11      -4.9678      2.00000
     12      -4.1780      2.00000
     13       0.7488      2.00000
     14       1.7808      2.00000
     15       4.6981      2.00000
     16       6.4283      2.00000
     17       6.9877      2.00000
     18       7.2754      2.00000
     19      13.8090      0.00000
     20      14.5515      0.00000
     21      15.2349      0.00000
     22      16.4079      0.00000
     23      18.3841      0.00000
     24      18.8627      0.00000
     25      21.0736      0.00000
     26      21.2580      0.00000
     27      25.9481      0.00000
     28      26.5080      0.00000
     29      27.9824      0.00000
     30      29.6066      0.00000
     31      31.3153      0.00000
     32      31.8545      0.00000

 k-point   143 :      -0.2500    0.1250    0.3333
  band No.  band energies     occupation 
      1      -8.5789      2.00000
      2      -8.0168      2.00000
      3      -5.8684      2.00000
      4      -5.8062      2.00000
      5      -5.7536      2.00000
      6      -5.6884      2.00000
      7      -5.6347      2.00000
      8      -5.5696      2.00000
      9      -5.4941      2.00000
     10      -5.3848      2.00000
     11      -5.2410      2.00000
     12      -4.4652      2.00000
     13       2.2087      2.00000
     14       3.7532      2.00000
     15       4.2763      2.00000
     16       6.4073      2.00000
     17       6.6688      2.00000
     18       7.4073      2.00000
     19      13.8025      0.00000
     20      14.3015      0.00000
     21      15.6905      0.00000
     22      16.6461      0.00000
     23      18.9558      0.00000
     24      19.4462      0.00000
     25      20.3244      0.00000
     26      21.0780      0.00000
     27      25.0227      0.00000
     28      26.6904      0.00000
     29      27.1453      0.00000
     30      28.2492      0.00000
     31      31.6303      0.00000
     32      32.4972      0.00000

 k-point   144 :      -0.1250    0.1250    0.3333
  band No.  band energies     occupation 
      1      -9.0059      2.00000
      2      -8.2797      2.00000
      3      -5.8444      2.00000
      4      -5.8208      2.00000
      5      -5.7779      2.00000
      6      -5.6618      2.00000
      7      -5.5932      2.00000
      8      -5.5648      2.00000
      9      -5.5376      2.00000
     10      -5.3822      2.00000
     11      -5.3459      2.00000
     12      -4.7393      2.00000
     13       2.5521      2.00000
     14       5.0102      2.00000
     15       5.3957      2.00000
     16       6.1158      2.00000
     17       6.5487      2.00000
     18       7.6257      2.00000
     19      13.2258      0.00000
     20      13.5392      0.00000
     21      16.9059      0.00000
     22      17.4556      0.00000
     23      18.7822      0.00000
     24      19.9160      0.00000
     25      20.6012      0.00000
     26      21.0730      0.00000
     27      23.6859      0.00000
     28      26.4955      0.00000
     29      26.9406      0.00000
     30      29.5769      0.00000
     31      30.5994      0.00000
     32      32.9398      0.00000

 k-point   145 :       0.0000    0.2500    0.3333
  band No.  band energies     occupation 
      1      -8.5429      2.00000
      2      -7.9660      2.00000
      3      -5.9115      2.00000
      4      -5.8535      2.00000
      5      -5.7631      2.00000
      6      -5.6617      2.00000
      7      -5.5817      2.00000
      8      -5.5439      2.00000
      9      -5.4666      2.00000
     10      -5.3948      2.00000
     11      -5.3580      2.00000
     12      -4.6227      2.00000
     13       1.6535      2.00000
     14       3.0908      2.00000
     15       4.3231      2.00000
     16       6.8620      2.00000
     17       7.1751      2.00000
     18       7.7762      2.00000
     19      13.5423      0.00000
     20      14.4796      0.00000
     21      16.2159      0.00000
     22      17.1889      0.00000
     23      18.4321      0.00000
     24      18.9716      0.00000
     25      22.2872      0.00000
     26      22.8088      0.00000
     27      24.5456      0.00000
     28      26.6696      0.00000
     29      27.1623      0.00000
     30      29.0666      0.00000
     31      30.4881      0.00000
     32      32.2843      0.00000

 k-point   146 :       0.1250    0.2500    0.3333
  band No.  band energies     occupation 
      1      -8.2409      2.00000
      2      -7.7847      2.00000
      3      -5.8526      2.00000
      4      -5.8154      2.00000
      5      -5.7406      2.00000
      6      -5.6560      2.00000
      7      -5.5785      2.00000
      8      -5.5422      2.00000
      9      -5.5214      2.00000
     10      -5.4452      2.00000
     11      -5.3146      2.00000
     12      -4.5395      2.00000
     13       1.4041      2.00000
     14       2.6477      2.00000
     15       4.5762      2.00000
     16       5.7350      2.00000
     17       6.5483      2.00000
     18       7.1535      2.00000
     19      14.2249      0.00000
     20      15.7881      0.00000
     21      16.3581      0.00000
     22      17.5229      0.00000
     23      17.8736      0.00000
     24      18.5396      0.00000
     25      23.2209      0.00000
     26      23.8736      0.00000
     27      24.1048      0.00000
     28      27.3878      0.00000
     29      28.1890      0.00000
     30      28.7807      0.00000
     31      29.1247      0.00000
     32      31.1900      0.00000

 k-point   147 :       0.2500    0.2500    0.3333
  band No.  band energies     occupation 
      1      -7.8458      2.00000
      2      -7.6054      2.00000
      3      -5.8305      2.00000
      4      -5.7902      2.00000
      5      -5.6831      2.00000
      6      -5.6186      2.00000
      7      -5.5917      2.00000
      8      -5.5894      2.00000
      9      -5.4892      2.00000
     10      -5.4686      2.00000
     11      -5.0277      2.00000
     12      -4.1951      2.00000
     13       1.2846      2.00000
     14       2.1685      2.00000
     15       3.8633      2.00000
     16       5.1768      2.00000
     17       5.4792      2.00000
     18       6.9180      2.00000
     19      15.0908      0.00000
     20      15.7782      0.00000
     21      16.4131      0.00000
     22      17.1949      0.00000
     23      17.3405      0.00000
     24      18.3382      0.00000
     25      22.8317      0.00000
     26      23.4218      0.00000
     27      23.6182      0.00000
     28      27.6631      0.00000
     29      28.5870      0.00000
     30      28.9767      0.00000
     31      31.1199      0.00000
     32      32.3347      0.00000

 k-point   148 :       0.3750    0.2500    0.3333
  band No.  band energies     occupation 
      1      -7.6251      2.00000
      2      -7.5682      2.00000
      3      -5.8822      2.00000
      4      -5.8246      2.00000
      5      -5.7477      2.00000
      6      -5.6315      2.00000
      7      -5.5668      2.00000
      8      -5.5218      2.00000
      9      -5.4174      2.00000
     10      -5.3740      2.00000
     11      -4.3252      2.00000
     12      -3.8027      2.00000
     13       0.8435      2.00000
     14       1.2799      2.00000
     15       3.5142      2.00000
     16       4.8398      2.00000
     17       6.1310      2.00000
     18       6.5036      2.00000
     19      14.4920      0.00000
     20      14.8298      0.00000
     21      15.7222      0.00000
     22      16.6699      0.00000
     23      17.2058      0.00000
     24      18.6343      0.00000
     25      21.9398      0.00000
     26      23.0230      0.00000
     27      24.4083      0.00000
     28      27.1223      0.00000
     29      28.1793      0.00000
     30      29.6808      0.00000
     31      32.5981      0.00000
     32      33.1073      0.00000

 k-point   149 :       0.5000    0.2500    0.3333
  band No.  band energies     occupation 
      1      -7.7198      2.00000
      2      -7.6241      2.00000
      3      -5.9023      2.00000
      4      -5.8601      2.00000
      5      -5.7423      2.00000
      6      -5.6426      2.00000
      7      -5.5862      2.00000
      8      -5.5198      2.00000
      9      -5.3621      2.00000
     10      -5.3191      2.00000
     11      -4.0081      2.00000
     12      -3.5902      2.00000
     13       0.6957      2.00000
     14       1.1867      2.00000
     15       4.1894      2.00000
     16       4.9903      2.00000
     17       5.8307      2.00000
     18       6.7240      2.00000
     19      13.0329      0.00000
     20      13.7831      0.00000
     21      15.2638      0.00000
     22      16.2482      0.00000
     23      18.2923      0.00000
     24      19.0299      0.00000
     25      21.2320      0.00000
     26      21.9766      0.00000
     27      24.7158      0.00000
     28      26.8137      0.00000
     29      28.5767      0.00000
     30      30.2434      0.00000
     31      31.6754      0.00000
     32      33.2420      0.00000

 k-point   150 :      -0.3750    0.2500    0.3333
  band No.  band energies     occupation 
      1      -8.0123      2.00000
      2      -7.7579      2.00000
      3      -5.8697      2.00000
      4      -5.8364      2.00000
      5      -5.7419      2.00000
      6      -5.6442      2.00000
      7      -5.6163      2.00000
      8      -5.5364      2.00000
      9      -5.3907      2.00000
     10      -5.3461      2.00000
     11      -4.5970      2.00000
     12      -3.6853      2.00000
     13       1.6509      2.00000
     14       2.5608      2.00000
     15       4.2059      2.00000
     16       5.0714      2.00000
     17       5.7653      2.00000
     18       6.7854      2.00000
     19      12.3325      0.00000
     20      13.3944      0.00000
     21      15.4966      0.00000
     22      16.4244      0.00000
     23      18.6362      0.00000
     24      19.7656      0.00000
     25      20.7332      0.00000
     26      21.0814      0.00000
     27      24.6537      0.00000
     28      26.6551      0.00000
     29      28.1681      0.00000
     30      29.0959      0.00000
     31      30.9875      0.00000
     32      33.2662      0.00000

 k-point   151 :      -0.2500    0.2500    0.3333
  band No.  band energies     occupation 
      1      -8.3563      2.00000
      2      -7.9217      2.00000
      3      -5.8096      2.00000
      4      -5.7808      2.00000
      5      -5.7707      2.00000
      6      -5.6427      2.00000
      7      -5.6388      2.00000
      8      -5.6033      2.00000
      9      -5.4803      2.00000
     10      -5.3774      2.00000
     11      -5.0359      2.00000
     12      -4.1251      2.00000
     13       2.7980      2.00000
     14       3.8146      2.00000
     15       4.1697      2.00000
     16       5.0988      2.00000
     17       5.7351      2.00000
     18       7.0364      2.00000
     19      12.9675      0.00000
     20      13.9260      0.00000
     21      15.6113      0.00000
     22      16.6954      0.00000
     23      18.7929      0.00000
     24      19.9836      0.00000
     25      20.2092      0.00000
     26      20.6288      0.00000
     27      25.4481      0.00000
     28      25.6829      0.00000
     29      27.5572      0.00000
     30      27.5979      0.00000
     31      31.6039      0.00000
     32      33.4224      0.00000

 k-point   152 :      -0.1250    0.2500    0.3333
  band No.  band energies     occupation 
      1      -8.5789      2.00000
      2      -8.0168      2.00000
      3      -5.8684      2.00000
      4      -5.8062      2.00000
      5      -5.7536      2.00000
      6      -5.6884      2.00000
      7      -5.6347      2.00000
      8      -5.5696      2.00000
      9      -5.4941      2.00000
     10      -5.3848      2.00000
     11      -5.2410      2.00000
     12      -4.4652      2.00000
     13       2.2087      2.00000
     14       3.7532      2.00000
     15       4.2763      2.00000
     16       6.4073      2.00000
     17       6.6688      2.00000
     18       7.4073      2.00000
     19      13.8025      0.00000
     20      14.3015      0.00000
     21      15.6905      0.00000
     22      16.6461      0.00000
     23      18.9558      0.00000
     24      19.4462      0.00000
     25      20.3244      0.00000
     26      21.0780      0.00000
     27      25.0227      0.00000
     28      26.6904      0.00000
     29      27.1453      0.00000
     30      28.2492      0.00000
     31      31.6303      0.00000
     32      32.4972      0.00000

 k-point   153 :      -0.0000    0.3750    0.3333
  band No.  band energies     occupation 
      1      -7.8918      2.00000
      2      -7.6068      2.00000
      3      -5.9011      2.00000
      4      -5.8512      2.00000
      5      -5.7708      2.00000
      6      -5.7367      2.00000
      7      -5.5442      2.00000
      8      -5.5068      2.00000
      9      -5.3882      2.00000
     10      -5.3770      2.00000
     11      -5.1723      2.00000
     12      -4.4556      2.00000
     13       0.2920      2.00000
     14       1.2310      2.00000
     15       4.8435      2.00000
     16       6.6183      2.00000
     17       7.3806      2.00000
     18       7.9182      2.00000
     19      13.3078      0.00000
     20      14.4475      0.00000
     21      16.4702      0.00000
     22      17.6727      0.00000
     23      17.9573      0.00000
     24      18.6202      0.00000
     25      22.1974      0.00000
     26      22.5097      0.00000
     27      24.0083      0.00000
     28      26.5034      0.00000
     29      28.5425      0.00000
     30      29.5357      0.00000
     31      30.5991      0.00000
     32      31.4044      0.00000

 k-point   154 :       0.1250    0.3750    0.3333
  band No.  band energies     occupation 
      1      -7.7210      2.00000
      2      -7.5418      2.00000
      3      -5.8668      2.00000
      4      -5.8071      2.00000
      5      -5.7376      2.00000
      6      -5.7104      2.00000
      7      -5.5985      2.00000
      8      -5.4920      2.00000
      9      -5.4360      2.00000
     10      -5.3765      2.00000
     11      -4.9852      2.00000
     12      -4.3210      2.00000
     13       0.3251      2.00000
     14       1.0793      2.00000
     15       4.9209      2.00000
     16       6.1624      2.00000
     17       6.4114      2.00000
     18       6.9871      2.00000
     19      13.9397      0.00000
     20      15.0352      0.00000
     21      16.5281      0.00000
     22      17.4936      0.00000
     23      18.0476      0.00000
     24      18.8315      0.00000
     25      21.3454      0.00000
     26      23.0775      0.00000
     27      24.2641      0.00000
     28      26.5891      0.00000
     29      28.5709      0.00000
     30      29.8232      0.00000
     31      30.7919      0.00000
     32      31.3267      0.00000

 k-point   155 :       0.2500    0.3750    0.3333
  band No.  band energies     occupation 
      1      -7.6251      2.00000
      2      -7.5682      2.00000
      3      -5.8822      2.00000
      4      -5.8246      2.00000
      5      -5.7477      2.00000
      6      -5.6315      2.00000
      7      -5.5668      2.00000
      8      -5.5218      2.00000
      9      -5.4174      2.00000
     10      -5.3740      2.00000
     11      -4.3252      2.00000
     12      -3.8027      2.00000
     13       0.8435      2.00000
     14       1.2799      2.00000
     15       3.5142      2.00000
     16       4.8399      2.00000
     17       6.1310      2.00000
     18       6.5036      2.00000
     19      14.4921      0.00000
     20      14.8297      0.00000
     21      15.7222      0.00000
     22      16.6698      0.00000
     23      17.2056      0.00000
     24      18.6344      0.00000
     25      21.9400      0.00000
     26      23.0229      0.00000
     27      24.4081      0.00000
     28      27.1223      0.00000
     29      28.1795      0.00000
     30      29.6808      0.00000
     31      32.5981      0.00000
     32      33.1073      0.00000

 k-point   156 :       0.3750    0.3750    0.3333
  band No.  band energies     occupation 
      1      -7.6833      2.00000
      2      -7.6502      2.00000
      3      -5.9007      2.00000
      4      -5.8131      2.00000
      5      -5.8120      2.00000
      6      -5.5687      2.00000
      7      -5.5597      2.00000
      8      -5.4802      2.00000
      9      -5.3400      2.00000
     10      -5.3244      2.00000
     11      -3.4251      2.00000
     12      -3.2739      2.00000
     13       1.5160      2.00000
     14       1.8106      2.00000
     15       2.0551      2.00000
     16       3.6282      2.00000
     17       5.9972      2.00000
     18       6.5432      2.00000
     19      12.9385      0.00000
     20      13.0491      0.00000
     21      15.6694      0.00000
     22      16.6403      0.00000
     23      17.2928      0.00000
     24      18.6472      0.00000
     25      22.1152      0.00000
     26      22.4968      0.00000
     27      24.7339      0.00000
     28      27.5294      0.00000
     29      27.7546      0.00000
     30      30.3654      0.00000
     31      32.3273      0.00000
     32      33.3335      0.00000

 k-point   157 :       0.5000    0.3750    0.3333
  band No.  band energies     occupation 
      1      -7.8225      2.00000
      2      -7.7213      2.00000
      3      -5.8956      2.00000
      4      -5.8336      2.00000
      5      -5.7712      2.00000
      6      -5.5940      2.00000
      7      -5.5514      2.00000
      8      -5.4977      2.00000
      9      -5.2751      2.00000
     10      -5.2664      2.00000
     11      -3.3594      2.00000
     12      -2.8564      2.00000
     13       1.6189      2.00000
     14       1.7782      2.00000
     15       3.0507      2.00000
     16       3.6669      2.00000
     17       5.3107      2.00000
     18       6.4035      2.00000
     19      11.3506      0.00000
     20      12.0790      0.00000
     21      15.6369      0.00000
     22      16.7371      0.00000
     23      18.1664      0.00000
     24      19.3265      0.00000
     25      20.6287      0.00000
     26      21.7917      0.00000
     27      24.8921      0.00000
     28      27.4465      0.00000
     29      28.6107      0.00000
     30      30.3704      0.00000
     31      31.6462      0.00000
     32      33.3468      0.00000

 k-point   158 :      -0.3750    0.3750    0.3333
  band No.  band energies     occupation 
      1      -7.9405      2.00000
      2      -7.7660      2.00000
      3      -5.8792      2.00000
      4      -5.7903      2.00000
      5      -5.7898      2.00000
      6      -5.6144      2.00000
      7      -5.5486      2.00000
      8      -5.5286      2.00000
      9      -5.3147      2.00000
     10      -5.2884      2.00000
     11      -4.0070      2.00000
     12      -3.1157      2.00000
     13       2.4234      2.00000
     14       2.7702      2.00000
     15       2.8715      2.00000
     16       4.1903      2.00000
     17       5.2882      2.00000
     18       6.2588      2.00000
     19      11.0412      0.00000
     20      12.1863      0.00000
     21      16.0277      0.00000
     22      16.8473      0.00000
     23      17.8979      0.00000
     24      20.2868      0.00000
     25      20.6598      0.00000
     26      21.0671      0.00000
     27      24.3766      0.00000
     28      27.6591      0.00000
     29      27.9022      0.00000
     30      29.5268      0.00000
     31      31.0511      0.00000
     32      33.4497      0.00000

 k-point   159 :      -0.2500    0.3750    0.3333
  band No.  band energies     occupation 
      1      -8.0123      2.00000
      2      -7.7579      2.00000
      3      -5.8697      2.00000
      4      -5.8364      2.00000
      5      -5.7419      2.00000
      6      -5.6442      2.00000
      7      -5.6163      2.00000
      8      -5.5364      2.00000
      9      -5.3907      2.00000
     10      -5.3461      2.00000
     11      -4.5970      2.00000
     12      -3.6853      2.00000
     13       1.6509      2.00000
     14       2.5608      2.00000
     15       4.2059      2.00000
     16       5.0714      2.00000
     17       5.7653      2.00000
     18       6.7854      2.00000
     19      12.3325      0.00000
     20      13.3944      0.00000
     21      15.4966      0.00000
     22      16.4244      0.00000
     23      18.6362      0.00000
     24      19.7656      0.00000
     25      20.7332      0.00000
     26      21.0814      0.00000
     27      24.6537      0.00000
     28      26.6551      0.00000
     29      28.1681      0.00000
     30      29.0959      0.00000
     31      30.9875      0.00000
     32      33.2662      0.00000

 k-point   160 :      -0.1250    0.3750    0.3333
  band No.  band energies     occupation 
      1      -8.0056      2.00000
      2      -7.6974      2.00000
      3      -5.8836      2.00000
      4      -5.8343      2.00000
      5      -5.8079      2.00000
      6      -5.7495      2.00000
      7      -5.5993      2.00000
      8      -5.4972      2.00000
      9      -5.4106      2.00000
     10      -5.3618      2.00000
     11      -4.9678      2.00000
     12      -4.1780      2.00000
     13       0.7488      2.00000
     14       1.7808      2.00000
     15       4.6981      2.00000
     16       6.4283      2.00000
     17       6.9877      2.00000
     18       7.2754      2.00000
     19      13.8090      0.00000
     20      14.5515      0.00000
     21      15.2349      0.00000
     22      16.4079      0.00000
     23      18.3841      0.00000
     24      18.8627      0.00000
     25      21.0736      0.00000
     26      21.2580      0.00000
     27      25.9481      0.00000
     28      26.5080      0.00000
     29      27.9824      0.00000
     30      29.6066      0.00000
     31      31.3153      0.00000
     32      31.8545      0.00000

 k-point   161 :       0.0000    0.5000    0.3333
  band No.  band energies     occupation 
      1      -7.5772      2.00000
      2      -7.4851      2.00000
      3      -5.8928      2.00000
      4      -5.8514      2.00000
      5      -5.7550      2.00000
      6      -5.7494      2.00000
      7      -5.5328      2.00000
      8      -5.5070      2.00000
      9      -5.3681      2.00000
     10      -5.3439      2.00000
     11      -4.7546      2.00000
     12      -4.6497      2.00000
     13      -0.1251      2.00000
     14       0.2161      2.00000
     15       5.5242      2.00000
     16       6.1038      2.00000
     17       7.5061      2.00000
     18       7.9655      2.00000
     19      13.4289      0.00000
     20      13.7188      0.00000
     21      17.3761      0.00000
     22      17.4114      0.00000
     23      18.1637      0.00000
     24      18.3667      0.00000
     25      21.9661      0.00000
     26      22.4490      0.00000
     27      24.0269      0.00000
     28      25.0943      0.00000
     29      29.0370      0.00000
     30      30.4852      0.00000
     31      31.0461      0.00000
     32      31.8270      0.00000

 k-point   162 :       0.1250    0.5000    0.3333
  band No.  band energies     occupation 
      1      -7.6165      2.00000
      2      -7.5262      2.00000
      3      -5.8749      2.00000
      4      -5.8195      2.00000
      5      -5.7953      2.00000
      6      -5.7716      2.00000
      7      -5.5896      2.00000
      8      -5.4808      2.00000
      9      -5.3895      2.00000
     10      -5.3289      2.00000
     11      -4.5341      2.00000
     12      -4.3073      2.00000
     13       0.0711      2.00000
     14       0.4779      2.00000
     15       5.4304      2.00000
     16       5.9131      2.00000
     17       6.8050      2.00000
     18       7.1267      2.00000
     19      13.9511      0.00000
     20      14.1556      0.00000
     21      16.1801      0.00000
     22      16.8958      0.00000
     23      18.1712      0.00000
     24      18.7473      0.00000
     25      20.6078      0.00000
     26      22.3495      0.00000
     27      25.1535      0.00000
     28      26.1537      0.00000
     29      28.9158      0.00000
     30      29.9327      0.00000
     31      31.4445      0.00000
     32      32.1088      0.00000

 k-point   163 :       0.2500    0.5000    0.3333
  band No.  band energies     occupation 
      1      -7.7198      2.00000
      2      -7.6242      2.00000
      3      -5.9023      2.00000
      4      -5.8601      2.00000
      5      -5.7423      2.00000
      6      -5.6426      2.00000
      7      -5.5862      2.00000
      8      -5.5198      2.00000
      9      -5.3621      2.00000
     10      -5.3192      2.00000
     11      -4.0081      2.00000
     12      -3.5902      2.00000
     13       0.6956      2.00000
     14       1.1867      2.00000
     15       4.1893      2.00000
     16       4.9904      2.00000
     17       5.8308      2.00000
     18       6.7239      2.00000
     19      13.0330      0.00000
     20      13.7830      0.00000
     21      15.2637      0.00000
     22      16.2481      0.00000
     23      18.2923      0.00000
     24      19.0299      0.00000
     25      21.2322      0.00000
     26      21.9765      0.00000
     27      24.7155      0.00000
     28      26.8138      0.00000
     29      28.5768      0.00000
     30      30.2435      0.00000
     31      31.6757      0.00000
     32      33.2419      0.00000

 k-point   164 :       0.3750    0.5000    0.3333
  band No.  band energies     occupation 
      1      -7.8225      2.00000
      2      -7.7213      2.00000
      3      -5.8956      2.00000
      4      -5.8336      2.00000
      5      -5.7712      2.00000
      6      -5.5940      2.00000
      7      -5.5514      2.00000
      8      -5.4976      2.00000
      9      -5.2750      2.00000
     10      -5.2664      2.00000
     11      -3.3594      2.00000
     12      -2.8564      2.00000
     13       1.6189      2.00000
     14       1.7782      2.00000
     15       3.0507      2.00000
     16       3.6669      2.00000
     17       5.3108      2.00000
     18       6.4035      2.00000
     19      11.3507      0.00000
     20      12.0790      0.00000
     21      15.6369      0.00000
     22      16.7369      0.00000
     23      18.1664      0.00000
     24      19.3265      0.00000
     25      20.6288      0.00000
     26      21.7918      0.00000
     27      24.8921      0.00000
     28      27.4466      0.00000
     29      28.6107      0.00000
     30      30.3704      0.00000
     31      31.6464      0.00000
     32      33.3467      0.00000

 k-point   165 :       0.5000    0.5000    0.3333
  band No.  band energies     occupation 
      1      -7.8632      2.00000
      2      -7.7610      2.00000
      3      -5.8994      2.00000
      4      -5.8093      2.00000
      5      -5.7733      2.00000
      6      -5.6066      2.00000
      7      -5.5390      2.00000
      8      -5.4974      2.00000
      9      -5.2230      2.00000
     10      -5.2176      2.00000
     11      -2.9768      2.00000
     12      -2.5282      2.00000
     13       1.3396      2.00000
     14       2.3628      2.00000
     15       2.7590      2.00000
     16       3.8343      2.00000
     17       4.7666      2.00000
     18       5.8761      2.00000
     19      10.7676      0.00000
     20      11.5013      0.00000
     21      15.4063      0.00000
     22      17.5564      0.00000
     23      18.2103      0.00000
     24      19.2817      0.00000
     25      20.4684      0.00000
     26      20.7035      0.00000
     27      25.4241      0.00000
     28      27.7460      0.00000
     29      29.0228      0.00000
     30      30.5245      0.00000
     31      31.6936      0.00000
     32      33.4240      0.00000

 k-point   166 :      -0.3750    0.5000    0.3333
  band No.  band energies     occupation 
      1      -7.8225      2.00000
      2      -7.7213      2.00000
      3      -5.8956      2.00000
      4      -5.8336      2.00000
      5      -5.7712      2.00000
      6      -5.5940      2.00000
      7      -5.5514      2.00000
      8      -5.4977      2.00000
      9      -5.2751      2.00000
     10      -5.2664      2.00000
     11      -3.3594      2.00000
     12      -2.8564      2.00000
     13       1.6189      2.00000
     14       1.7782      2.00000
     15       3.0507      2.00000
     16       3.6669      2.00000
     17       5.3107      2.00000
     18       6.4035      2.00000
     19      11.3506      0.00000
     20      12.0790      0.00000
     21      15.6369      0.00000
     22      16.7371      0.00000
     23      18.1664      0.00000
     24      19.3265      0.00000
     25      20.6287      0.00000
     26      21.7917      0.00000
     27      24.8921      0.00000
     28      27.4465      0.00000
     29      28.6107      0.00000
     30      30.3704      0.00000
     31      31.6462      0.00000
     32      33.3468      0.00000

 k-point   167 :      -0.2500    0.5000    0.3333
  band No.  band energies     occupation 
      1      -7.7198      2.00000
      2      -7.6241      2.00000
      3      -5.9023      2.00000
      4      -5.8601      2.00000
      5      -5.7423      2.00000
      6      -5.6426      2.00000
      7      -5.5862      2.00000
      8      -5.5198      2.00000
      9      -5.3621      2.00000
     10      -5.3191      2.00000
     11      -4.0081      2.00000
     12      -3.5902      2.00000
     13       0.6957      2.00000
     14       1.1867      2.00000
     15       4.1894      2.00000
     16       4.9903      2.00000
     17       5.8307      2.00000
     18       6.7240      2.00000
     19      13.0329      0.00000
     20      13.7831      0.00000
     21      15.2638      0.00000
     22      16.2482      0.00000
     23      18.2923      0.00000
     24      19.0299      0.00000
     25      21.2320      0.00000
     26      21.9766      0.00000
     27      24.7158      0.00000
     28      26.8137      0.00000
     29      28.5767      0.00000
     30      30.2434      0.00000
     31      31.6754      0.00000
     32      33.2420      0.00000

 k-point   168 :      -0.1250    0.5000    0.3333
  band No.  band energies     occupation 
      1      -7.6165      2.00000
      2      -7.5262      2.00000
      3      -5.8749      2.00000
      4      -5.8195      2.00000
      5      -5.7953      2.00000
      6      -5.7716      2.00000
      7      -5.5896      2.00000
      8      -5.4808      2.00000
      9      -5.3895      2.00000
     10      -5.3289      2.00000
     11      -4.5342      2.00000
     12      -4.3073      2.00000
     13       0.0711      2.00000
     14       0.4778      2.00000
     15       5.4304      2.00000
     16       5.9131      2.00000
     17       6.8050      2.00000
     18       7.1267      2.00000
     19      13.9510      0.00000
     20      14.1558      0.00000
     21      16.1802      0.00000
     22      16.8958      0.00000
     23      18.1711      0.00000
     24      18.7472      0.00000
     25      20.6078      0.00000
     26      22.3496      0.00000
     27      25.1537      0.00000
     28      26.1537      0.00000
     29      28.9157      0.00000
     30      29.9326      0.00000
     31      31.4445      0.00000
     32      32.1084      0.00000

 k-point   169 :      -0.0000   -0.3750    0.3333
  band No.  band energies     occupation 
      1      -7.8918      2.00000
      2      -7.6068      2.00000
      3      -5.9011      2.00000
      4      -5.8511      2.00000
      5      -5.7708      2.00000
      6      -5.7367      2.00000
      7      -5.5443      2.00000
      8      -5.5068      2.00000
      9      -5.3882      2.00000
     10      -5.3770      2.00000
     11      -5.1722      2.00000
     12      -4.4557      2.00000
     13       0.2919      2.00000
     14       1.2310      2.00000
     15       4.8435      2.00000
     16       6.6183      2.00000
     17       7.3807      2.00000
     18       7.9182      2.00000
     19      13.3076      0.00000
     20      14.4477      0.00000
     21      16.4703      0.00000
     22      17.6726      0.00000
     23      17.9572      0.00000
     24      18.6202      0.00000
     25      22.1975      0.00000
     26      22.5096      0.00000
     27      24.0084      0.00000
     28      26.5033      0.00000
     29      28.5426      0.00000
     30      29.5357      0.00000
     31      30.5990      0.00000
     32      31.4041      0.00000

 k-point   170 :       0.1250   -0.3750    0.3333
  band No.  band energies     occupation 
      1      -8.0055      2.00000
      2      -7.6974      2.00000
      3      -5.8836      2.00000
      4      -5.8343      2.00000
      5      -5.8079      2.00000
      6      -5.7495      2.00000
      7      -5.5993      2.00000
      8      -5.4972      2.00000
      9      -5.4106      2.00000
     10      -5.3619      2.00000
     11      -4.9678      2.00000
     12      -4.1780      2.00000
     13       0.7487      2.00000
     14       1.7809      2.00000
     15       4.6982      2.00000
     16       6.4283      2.00000
     17       6.9878      2.00000
     18       7.2754      2.00000
     19      13.8090      0.00000
     20      14.5516      0.00000
     21      15.2349      0.00000
     22      16.4078      0.00000
     23      18.3841      0.00000
     24      18.8628      0.00000
     25      21.0737      0.00000
     26      21.2580      0.00000
     27      25.9479      0.00000
     28      26.5079      0.00000
     29      27.9824      0.00000
     30      29.6068      0.00000
     31      31.3152      0.00000
     32      31.8548      0.00000

 k-point   171 :       0.2500   -0.3750    0.3333
  band No.  band energies     occupation 
      1      -8.0123      2.00000
      2      -7.7579      2.00000
      3      -5.8697      2.00000
      4      -5.8364      2.00000
      5      -5.7419      2.00000
      6      -5.6442      2.00000
      7      -5.6163      2.00000
      8      -5.5364      2.00000
      9      -5.3907      2.00000
     10      -5.3461      2.00000
     11      -4.5970      2.00000
     12      -3.6853      2.00000
     13       1.6508      2.00000
     14       2.5608      2.00000
     15       4.2059      2.00000
     16       5.0714      2.00000
     17       5.7654      2.00000
     18       6.7853      2.00000
     19      12.3326      0.00000
     20      13.3944      0.00000
     21      15.4965      0.00000
     22      16.4244      0.00000
     23      18.6362      0.00000
     24      19.7656      0.00000
     25      20.7331      0.00000
     26      21.0815      0.00000
     27      24.6534      0.00000
     28      26.6551      0.00000
     29      28.1682      0.00000
     30      29.0960      0.00000
     31      30.9879      0.00000
     32      33.2660      0.00000

 k-point   172 :       0.3750   -0.3750    0.3333
  band No.  band energies     occupation 
      1      -7.9405      2.00000
      2      -7.7660      2.00000
      3      -5.8792      2.00000
      4      -5.7903      2.00000
      5      -5.7898      2.00000
      6      -5.6144      2.00000
      7      -5.5486      2.00000
      8      -5.5286      2.00000
      9      -5.3147      2.00000
     10      -5.2884      2.00000
     11      -4.0069      2.00000
     12      -3.1157      2.00000
     13       2.4234      2.00000
     14       2.7702      2.00000
     15       2.8715      2.00000
     16       4.1903      2.00000
     17       5.2883      2.00000
     18       6.2588      2.00000
     19      11.0414      0.00000
     20      12.1862      0.00000
     21      16.0277      0.00000
     22      16.8470      0.00000
     23      17.8979      0.00000
     24      20.2869      0.00000
     25      20.6598      0.00000
     26      21.0671      0.00000
     27      24.3765      0.00000
     28      27.6593      0.00000
     29      27.9021      0.00000
     30      29.5269      0.00000
     31      31.0514      0.00000
     32      33.4495      0.00000

 k-point   173 :       0.5000   -0.3750    0.3333
  band No.  band energies     occupation 
      1      -7.8225      2.00000
      2      -7.7213      2.00000
      3      -5.8956      2.00000
      4      -5.8336      2.00000
      5      -5.7712      2.00000
      6      -5.5940      2.00000
      7      -5.5514      2.00000
      8      -5.4976      2.00000
      9      -5.2750      2.00000
     10      -5.2664      2.00000
     11      -3.3594      2.00000
     12      -2.8564      2.00000
     13       1.6189      2.00000
     14       1.7782      2.00000
     15       3.0507      2.00000
     16       3.6669      2.00000
     17       5.3108      2.00000
     18       6.4035      2.00000
     19      11.3507      0.00000
     20      12.0790      0.00000
     21      15.6369      0.00000
     22      16.7369      0.00000
     23      18.1664      0.00000
     24      19.3265      0.00000
     25      20.6288      0.00000
     26      21.7918      0.00000
     27      24.8921      0.00000
     28      27.4466      0.00000
     29      28.6107      0.00000
     30      30.3704      0.00000
     31      31.6464      0.00000
     32      33.3467      0.00000

 k-point   174 :      -0.3750   -0.3750    0.3333
  band No.  band energies     occupation 
      1      -7.6833      2.00000
      2      -7.6502      2.00000
      3      -5.9007      2.00000
      4      -5.8131      2.00000
      5      -5.8120      2.00000
      6      -5.5687      2.00000
      7      -5.5597      2.00000
      8      -5.4802      2.00000
      9      -5.3400      2.00000
     10      -5.3244      2.00000
     11      -3.4251      2.00000
     12      -3.2739      2.00000
     13       1.5160      2.00000
     14       1.8106      2.00000
     15       2.0551      2.00000
     16       3.6282      2.00000
     17       5.9972      2.00000
     18       6.5432      2.00000
     19      12.9385      0.00000
     20      13.0491      0.00000
     21      15.6694      0.00000
     22      16.6403      0.00000
     23      17.2928      0.00000
     24      18.6472      0.00000
     25      22.1152      0.00000
     26      22.4968      0.00000
     27      24.7339      0.00000
     28      27.5294      0.00000
     29      27.7546      0.00000
     30      30.3654      0.00000
     31      32.3273      0.00000
     32      33.3335      0.00000

 k-point   175 :      -0.2500   -0.3750    0.3333
  band No.  band energies     occupation 
      1      -7.6251      2.00000
      2      -7.5682      2.00000
      3      -5.8822      2.00000
      4      -5.8246      2.00000
      5      -5.7477      2.00000
      6      -5.6315      2.00000
      7      -5.5668      2.00000
      8      -5.5218      2.00000
      9      -5.4174      2.00000
     10      -5.3740      2.00000
     11      -4.3252      2.00000
     12      -3.8027      2.00000
     13       0.8435      2.00000
     14       1.2799      2.00000
     15       3.5142      2.00000
     16       4.8398      2.00000
     17       6.1310      2.00000
     18       6.5036      2.00000
     19      14.4920      0.00000
     20      14.8298      0.00000
     21      15.7222      0.00000
     22      16.6699      0.00000
     23      17.2058      0.00000
     24      18.6343      0.00000
     25      21.9398      0.00000
     26      23.0230      0.00000
     27      24.4083      0.00000
     28      27.1223      0.00000
     29      28.1793      0.00000
     30      29.6808      0.00000
     31      32.5981      0.00000
     32      33.1073      0.00000

 k-point   176 :      -0.1250   -0.3750    0.3333
  band No.  band energies     occupation 
      1      -7.7210      2.00000
      2      -7.5418      2.00000
      3      -5.8668      2.00000
      4      -5.8071      2.00000
      5      -5.7377      2.00000
      6      -5.7104      2.00000
      7      -5.5985      2.00000
      8      -5.4920      2.00000
      9      -5.4360      2.00000
     10      -5.3765      2.00000
     11      -4.9852      2.00000
     12      -4.3210      2.00000
     13       0.3250      2.00000
     14       1.0793      2.00000
     15       4.9209      2.00000
     16       6.1624      2.00000
     17       6.4113      2.00000
     18       6.9872      2.00000
     19      13.9396      0.00000
     20      15.0354      0.00000
     21      16.5282      0.00000
     22      17.4936      0.00000
     23      18.0476      0.00000
     24      18.8314      0.00000
     25      21.3453      0.00000
     26      23.0776      0.00000
     27      24.2643      0.00000
     28      26.5892      0.00000
     29      28.5710      0.00000
     30      29.8230      0.00000
     31      30.7920      0.00000
     32      31.3265      0.00000

 k-point   177 :      -0.0000   -0.2500    0.3333
  band No.  band energies     occupation 
      1      -8.5429      2.00000
      2      -7.9660      2.00000
      3      -5.9115      2.00000
      4      -5.8535      2.00000
      5      -5.7631      2.00000
      6      -5.6617      2.00000
      7      -5.5818      2.00000
      8      -5.5439      2.00000
      9      -5.4666      2.00000
     10      -5.3948      2.00000
     11      -5.3580      2.00000
     12      -4.6227      2.00000
     13       1.6534      2.00000
     14       3.0909      2.00000
     15       4.3231      2.00000
     16       6.8620      2.00000
     17       7.1751      2.00000
     18       7.7762      2.00000
     19      13.5422      0.00000
     20      14.4797      0.00000
     21      16.2161      0.00000
     22      17.1889      0.00000
     23      18.4320      0.00000
     24      18.9715      0.00000
     25      22.2872      0.00000
     26      22.8089      0.00000
     27      24.5457      0.00000
     28      26.6696      0.00000
     29      27.1623      0.00000
     30      29.0666      0.00000
     31      30.4881      0.00000
     32      32.2839      0.00000

 k-point   178 :       0.1250   -0.2500    0.3333
  band No.  band energies     occupation 
      1      -8.5789      2.00000
      2      -8.0168      2.00000
      3      -5.8684      2.00000
      4      -5.8062      2.00000
      5      -5.7535      2.00000
      6      -5.6885      2.00000
      7      -5.6347      2.00000
      8      -5.5696      2.00000
      9      -5.4941      2.00000
     10      -5.3848      2.00000
     11      -5.2410      2.00000
     12      -4.4652      2.00000
     13       2.2087      2.00000
     14       3.7532      2.00000
     15       4.2763      2.00000
     16       6.4073      2.00000
     17       6.6689      2.00000
     18       7.4072      2.00000
     19      13.8024      0.00000
     20      14.3015      0.00000
     21      15.6905      0.00000
     22      16.6461      0.00000
     23      18.9558      0.00000
     24      19.4461      0.00000
     25      20.3243      0.00000
     26      21.0782      0.00000
     27      25.0226      0.00000
     28      26.6904      0.00000
     29      27.1454      0.00000
     30      28.2491      0.00000
     31      31.6303      0.00000
     32      32.4970      0.00000

 k-point   179 :       0.2500   -0.2500    0.3333
  band No.  band energies     occupation 
      1      -8.3562      2.00000
      2      -7.9217      2.00000
      3      -5.8096      2.00000
      4      -5.7808      2.00000
      5      -5.7707      2.00000
      6      -5.6427      2.00000
      7      -5.6388      2.00000
      8      -5.6033      2.00000
      9      -5.4803      2.00000
     10      -5.3774      2.00000
     11      -5.0359      2.00000
     12      -4.1252      2.00000
     13       2.7980      2.00000
     14       3.8146      2.00000
     15       4.1698      2.00000
     16       5.0988      2.00000
     17       5.7352      2.00000
     18       7.0363      2.00000
     19      12.9676      0.00000
     20      13.9260      0.00000
     21      15.6112      0.00000
     22      16.6954      0.00000
     23      18.7928      0.00000
     24      19.9835      0.00000
     25      20.2093      0.00000
     26      20.6289      0.00000
     27      25.4480      0.00000
     28      25.6825      0.00000
     29      27.5573      0.00000
     30      27.5981      0.00000
     31      31.6044      0.00000
     32      33.4221      0.00000

 k-point   180 :       0.3750   -0.2500    0.3333
  band No.  band energies     occupation 
      1      -8.0123      2.00000
      2      -7.7579      2.00000
      3      -5.8697      2.00000
      4      -5.8364      2.00000
      5      -5.7419      2.00000
      6      -5.6442      2.00000
      7      -5.6163      2.00000
      8      -5.5364      2.00000
      9      -5.3907      2.00000
     10      -5.3461      2.00000
     11      -4.5970      2.00000
     12      -3.6853      2.00000
     13       1.6508      2.00000
     14       2.5608      2.00000
     15       4.2059      2.00000
     16       5.0714      2.00000
     17       5.7654      2.00000
     18       6.7853      2.00000
     19      12.3326      0.00000
     20      13.3944      0.00000
     21      15.4965      0.00000
     22      16.4244      0.00000
     23      18.6362      0.00000
     24      19.7656      0.00000
     25      20.7331      0.00000
     26      21.0815      0.00000
     27      24.6534      0.00000
     28      26.6551      0.00000
     29      28.1682      0.00000
     30      29.0960      0.00000
     31      30.9879      0.00000
     32      33.2660      0.00000

 k-point   181 :       0.5000   -0.2500    0.3333
  band No.  band energies     occupation 
      1      -7.7198      2.00000
      2      -7.6242      2.00000
      3      -5.9023      2.00000
      4      -5.8601      2.00000
      5      -5.7423      2.00000
      6      -5.6426      2.00000
      7      -5.5862      2.00000
      8      -5.5198      2.00000
      9      -5.3621      2.00000
     10      -5.3192      2.00000
     11      -4.0081      2.00000
     12      -3.5902      2.00000
     13       0.6956      2.00000
     14       1.1867      2.00000
     15       4.1893      2.00000
     16       4.9904      2.00000
     17       5.8308      2.00000
     18       6.7239      2.00000
     19      13.0330      0.00000
     20      13.7830      0.00000
     21      15.2637      0.00000
     22      16.2481      0.00000
     23      18.2923      0.00000
     24      19.0299      0.00000
     25      21.2322      0.00000
     26      21.9765      0.00000
     27      24.7155      0.00000
     28      26.8138      0.00000
     29      28.5768      0.00000
     30      30.2435      0.00000
     31      31.6757      0.00000
     32      33.2419      0.00000

 k-point   182 :      -0.3750   -0.2500    0.3333
  band No.  band energies     occupation 
      1      -7.6251      2.00000
      2      -7.5682      2.00000
      3      -5.8822      2.00000
      4      -5.8246      2.00000
      5      -5.7477      2.00000
      6      -5.6315      2.00000
      7      -5.5668      2.00000
      8      -5.5218      2.00000
      9      -5.4174      2.00000
     10      -5.3740      2.00000
     11      -4.3252      2.00000
     12      -3.8027      2.00000
     13       0.8435      2.00000
     14       1.2799      2.00000
     15       3.5142      2.00000
     16       4.8399      2.00000
     17       6.1310      2.00000
     18       6.5036      2.00000
     19      14.4921      0.00000
     20      14.8297      0.00000
     21      15.7222      0.00000
     22      16.6698      0.00000
     23      17.2056      0.00000
     24      18.6344      0.00000
     25      21.9400      0.00000
     26      23.0229      0.00000
     27      24.4081      0.00000
     28      27.1223      0.00000
     29      28.1795      0.00000
     30      29.6808      0.00000
     31      32.5981      0.00000
     32      33.1073      0.00000

 k-point   183 :      -0.2500   -0.2500    0.3333
  band No.  band energies     occupation 
      1      -7.8458      2.00000
      2      -7.6054      2.00000
      3      -5.8305      2.00000
      4      -5.7902      2.00000
      5      -5.6831      2.00000
      6      -5.6186      2.00000
      7      -5.5917      2.00000
      8      -5.5894      2.00000
      9      -5.4892      2.00000
     10      -5.4686      2.00000
     11      -5.0277      2.00000
     12      -4.1951      2.00000
     13       1.2846      2.00000
     14       2.1685      2.00000
     15       3.8633      2.00000
     16       5.1768      2.00000
     17       5.4792      2.00000
     18       6.9180      2.00000
     19      15.0908      0.00000
     20      15.7782      0.00000
     21      16.4131      0.00000
     22      17.1949      0.00000
     23      17.3405      0.00000
     24      18.3382      0.00000
     25      22.8317      0.00000
     26      23.4218      0.00000
     27      23.6182      0.00000
     28      27.6631      0.00000
     29      28.5870      0.00000
     30      28.9767      0.00000
     31      31.1199      0.00000
     32      32.3347      0.00000

 k-point   184 :      -0.1250   -0.2500    0.3333
  band No.  band energies     occupation 
      1      -8.2409      2.00000
      2      -7.7847      2.00000
      3      -5.8526      2.00000
      4      -5.8154      2.00000
      5      -5.7406      2.00000
      6      -5.6560      2.00000
      7      -5.5785      2.00000
      8      -5.5422      2.00000
      9      -5.5214      2.00000
     10      -5.4452      2.00000
     11      -5.3146      2.00000
     12      -4.5395      2.00000
     13       1.4041      2.00000
     14       2.6478      2.00000
     15       4.5762      2.00000
     16       5.7350      2.00000
     17       6.5483      2.00000
     18       7.1535      2.00000
     19      14.2248      0.00000
     20      15.7882      0.00000
     21      16.3582      0.00000
     22      17.5228      0.00000
     23      17.8737      0.00000
     24      18.5395      0.00000
     25      23.2209      0.00000
     26      23.8736      0.00000
     27      24.1048      0.00000
     28      27.3878      0.00000
     29      28.1891      0.00000
     30      28.7808      0.00000
     31      29.1248      0.00000
     32      31.1897      0.00000

 k-point   185 :      -0.0000   -0.1250    0.3333
  band No.  band energies     occupation 
      1      -9.0939      2.00000
      2      -8.3264      2.00000
      3      -5.8994      2.00000
      4      -5.8424      2.00000
      5      -5.7975      2.00000
      6      -5.6136      2.00000
      7      -5.5658      2.00000
      8      -5.5393      2.00000
      9      -5.4944      2.00000
     10      -5.4138      2.00000
     11      -5.3776      2.00000
     12      -4.8535      2.00000
     13       2.3696      2.00000
     14       4.9206      2.00000
     15       5.0197      2.00000
     16       6.7669      2.00000
     17       7.1038      2.00000
     18       7.7860      2.00000
     19      12.9639      0.00000
     20      13.1853      0.00000
     21      17.2891      0.00000
     22      17.6059      0.00000
     23      18.3534      0.00000
     24      19.3940      0.00000
     25      22.4268      0.00000
     26      22.6638      0.00000
     27      24.0016      0.00000
     28      26.0171      0.00000
     29      26.8080      0.00000
     30      30.0367      0.00000
     31      30.6564      0.00000
     32      32.0314      0.00000

 k-point   186 :       0.1250   -0.1250    0.3333
  band No.  band energies     occupation 
      1      -9.0059      2.00000
      2      -8.2797      2.00000
      3      -5.8444      2.00000
      4      -5.8208      2.00000
      5      -5.7779      2.00000
      6      -5.6617      2.00000
      7      -5.5932      2.00000
      8      -5.5648      2.00000
      9      -5.5376      2.00000
     10      -5.3822      2.00000
     11      -5.3459      2.00000
     12      -4.7393      2.00000
     13       2.5521      2.00000
     14       5.0101      2.00000
     15       5.3958      2.00000
     16       6.1158      2.00000
     17       6.5487      2.00000
     18       7.6256      2.00000
     19      13.2258      0.00000
     20      13.5393      0.00000
     21      16.9059      0.00000
     22      17.4557      0.00000
     23      18.7822      0.00000
     24      19.9160      0.00000
     25      20.6011      0.00000
     26      21.0730      0.00000
     27      23.6857      0.00000
     28      26.4956      0.00000
     29      26.9407      0.00000
     30      29.5768      0.00000
     31      30.5995      0.00000
     32      32.9396      0.00000

 k-point   187 :       0.2500   -0.1250    0.3333
  band No.  band energies     occupation 
      1      -8.5789      2.00000
      2      -8.0168      2.00000
      3      -5.8684      2.00000
      4      -5.8062      2.00000
      5      -5.7535      2.00000
      6      -5.6885      2.00000
      7      -5.6347      2.00000
      8      -5.5696      2.00000
      9      -5.4941      2.00000
     10      -5.3848      2.00000
     11      -5.2410      2.00000
     12      -4.4652      2.00000
     13       2.2087      2.00000
     14       3.7532      2.00000
     15       4.2763      2.00000
     16       6.4073      2.00000
     17       6.6689      2.00000
     18       7.4072      2.00000
     19      13.8024      0.00000
     20      14.3015      0.00000
     21      15.6905      0.00000
     22      16.6461      0.00000
     23      18.9558      0.00000
     24      19.4461      0.00000
     25      20.3243      0.00000
     26      21.0782      0.00000
     27      25.0226      0.00000
     28      26.6904      0.00000
     29      27.1454      0.00000
     30      28.2491      0.00000
     31      31.6303      0.00000
     32      32.4970      0.00000

 k-point   188 :       0.3750   -0.1250    0.3333
  band No.  band energies     occupation 
      1      -8.0055      2.00000
      2      -7.6974      2.00000
      3      -5.8836      2.00000
      4      -5.8343      2.00000
      5      -5.8079      2.00000
      6      -5.7495      2.00000
      7      -5.5993      2.00000
      8      -5.4972      2.00000
      9      -5.4106      2.00000
     10      -5.3619      2.00000
     11      -4.9678      2.00000
     12      -4.1780      2.00000
     13       0.7487      2.00000
     14       1.7809      2.00000
     15       4.6982      2.00000
     16       6.4283      2.00000
     17       6.9878      2.00000
     18       7.2754      2.00000
     19      13.8090      0.00000
     20      14.5516      0.00000
     21      15.2349      0.00000
     22      16.4078      0.00000
     23      18.3841      0.00000
     24      18.8628      0.00000
     25      21.0737      0.00000
     26      21.2580      0.00000
     27      25.9479      0.00000
     28      26.5079      0.00000
     29      27.9824      0.00000
     30      29.6068      0.00000
     31      31.3152      0.00000
     32      31.8548      0.00000

 k-point   189 :       0.5000   -0.1250    0.3333
  band No.  band energies     occupation 
      1      -7.6165      2.00000
      2      -7.5262      2.00000
      3      -5.8749      2.00000
      4      -5.8195      2.00000
      5      -5.7953      2.00000
      6      -5.7716      2.00000
      7      -5.5896      2.00000
      8      -5.4808      2.00000
      9      -5.3895      2.00000
     10      -5.3289      2.00000
     11      -4.5341      2.00000
     12      -4.3073      2.00000
     13       0.0711      2.00000
     14       0.4779      2.00000
     15       5.4304      2.00000
     16       5.9131      2.00000
     17       6.8050      2.00000
     18       7.1267      2.00000
     19      13.9511      0.00000
     20      14.1556      0.00000
     21      16.1801      0.00000
     22      16.8958      0.00000
     23      18.1712      0.00000
     24      18.7473      0.00000
     25      20.6078      0.00000
     26      22.3495      0.00000
     27      25.1535      0.00000
     28      26.1537      0.00000
     29      28.9158      0.00000
     30      29.9327      0.00000
     31      31.4445      0.00000
     32      32.1088      0.00000

 k-point   190 :      -0.3750   -0.1250    0.3333
  band No.  band energies     occupation 
      1      -7.7210      2.00000
      2      -7.5418      2.00000
      3      -5.8668      2.00000
      4      -5.8071      2.00000
      5      -5.7376      2.00000
      6      -5.7104      2.00000
      7      -5.5985      2.00000
      8      -5.4920      2.00000
      9      -5.4360      2.00000
     10      -5.3765      2.00000
     11      -4.9852      2.00000
     12      -4.3210      2.00000
     13       0.3251      2.00000
     14       1.0793      2.00000
     15       4.9209      2.00000
     16       6.1624      2.00000
     17       6.4114      2.00000
     18       6.9871      2.00000
     19      13.9397      0.00000
     20      15.0352      0.00000
     21      16.5281      0.00000
     22      17.4936      0.00000
     23      18.0476      0.00000
     24      18.8315      0.00000
     25      21.3454      0.00000
     26      23.0775      0.00000
     27      24.2641      0.00000
     28      26.5891      0.00000
     29      28.5709      0.00000
     30      29.8232      0.00000
     31      30.7919      0.00000
     32      31.3267      0.00000

 k-point   191 :      -0.2500   -0.1250    0.3333
  band No.  band energies     occupation 
      1      -8.2409      2.00000
      2      -7.7847      2.00000
      3      -5.8526      2.00000
      4      -5.8154      2.00000
      5      -5.7406      2.00000
      6      -5.6560      2.00000
      7      -5.5785      2.00000
      8      -5.5422      2.00000
      9      -5.5214      2.00000
     10      -5.4452      2.00000
     11      -5.3146      2.00000
     12      -4.5395      2.00000
     13       1.4041      2.00000
     14       2.6477      2.00000
     15       4.5762      2.00000
     16       5.7350      2.00000
     17       6.5483      2.00000
     18       7.1535      2.00000
     19      14.2249      0.00000
     20      15.7881      0.00000
     21      16.3581      0.00000
     22      17.5229      0.00000
     23      17.8736      0.00000
     24      18.5396      0.00000
     25      23.2209      0.00000
     26      23.8736      0.00000
     27      24.1048      0.00000
     28      27.3878      0.00000
     29      28.1890      0.00000
     30      28.7807      0.00000
     31      29.1247      0.00000
     32      31.1900      0.00000

 k-point   192 :      -0.1250   -0.1250    0.3333
  band No.  band energies     occupation 
      1      -8.8033      2.00000
      2      -8.1229      2.00000
      3      -5.8906      2.00000
      4      -5.8344      2.00000
      5      -5.7967      2.00000
      6      -5.6100      2.00000
      7      -5.5606      2.00000
      8      -5.5590      2.00000
      9      -5.4754      2.00000
     10      -5.4471      2.00000
     11      -5.4041      2.00000
     12      -4.7605      2.00000
     13       2.1542      2.00000
     14       4.0653      2.00000
     15       4.7791      2.00000
     16       6.1104      2.00000
     17       7.1282      2.00000
     18       7.1393      2.00000
     19      13.8620      0.00000
     20      14.3339      0.00000
     21      17.3227      0.00000
     22      17.3781      0.00000
     23      18.0490      0.00000
     24      18.4651      0.00000
     25      23.7685      0.00000
     26      24.0491      0.00000
     27      25.3477      0.00000
     28      25.4503      0.00000
     29      27.2443      0.00000
     30      29.3970      0.00000
     31      30.0564      0.00000
     32      31.2006      0.00000

 k-point   193 :      -0.0000    0.0000    0.5000
  band No.  band energies     occupation 
      1      -8.8543      2.00000
      2      -8.8542      2.00000
      3      -5.8718      2.00000
      4      -5.8718      2.00000
      5      -5.6917      2.00000
      6      -5.6916      2.00000
      7      -5.5361      2.00000
      8      -5.5361      2.00000
      9      -5.4519      2.00000
     10      -5.4519      2.00000
     11      -5.3383      2.00000
     12      -5.3383      2.00000
     13       4.1805      2.00000
     14       4.1806      2.00000
     15       6.0677      2.00000
     16       6.0678      2.00000
     17       7.6500      2.00000
     18       7.6500      2.00000
     19      12.7072      0.00000
     20      12.7073      0.00000
     21      17.2965      0.00000
     22      17.2966      0.00000
     23      18.8750      0.00000
     24      18.8752      0.00000
     25      22.1086      0.00000
     26      22.1088      0.00000
     27      24.9028      0.00000
     28      24.9029      0.00000
     29      29.6526      0.00000
     30      29.6528      0.00000
     31      31.9647      0.00000
     32      31.9648      0.00000

 k-point   194 :       0.1250    0.0000    0.5000
  band No.  band energies     occupation 
      1      -8.6744      2.00000
      2      -8.6744      2.00000
      3      -5.8686      2.00000
      4      -5.8686      2.00000
      5      -5.7081      2.00000
      6      -5.7081      2.00000
      7      -5.5694      2.00000
      8      -5.5693      2.00000
      9      -5.4361      2.00000
     10      -5.4361      2.00000
     11      -5.2751      2.00000
     12      -5.2750      2.00000
     13       3.7903      2.00000
     14       3.7904      2.00000
     15       5.8557      2.00000
     16       5.8557      2.00000
     17       7.4051      2.00000
     18       7.4052      2.00000
     19      13.4659      0.00000
     20      13.4659      0.00000
     21      16.8368      0.00000
     22      16.8369      0.00000
     23      18.7498      0.00000
     24      18.7499      0.00000
     25      22.4593      0.00000
     26      22.4595      0.00000
     27      25.0833      0.00000
     28      25.0834      0.00000
     29      28.6126      0.00000
     30      28.6127      0.00000
     31      31.6955      0.00000
     32      31.6956      0.00000

 k-point   195 :       0.2500   -0.0000    0.5000
  band No.  band energies     occupation 
      1      -8.2078      2.00000
      2      -8.2078      2.00000
      3      -5.8854      2.00000
      4      -5.8854      2.00000
      5      -5.7354      2.00000
      6      -5.7353      2.00000
      7      -5.5601      2.00000
      8      -5.5601      2.00000
      9      -5.4203      2.00000
     10      -5.4203      2.00000
     11      -5.1274      2.00000
     12      -5.1273      2.00000
     13       2.3046      2.00000
     14       2.3047      2.00000
     15       5.8510      2.00000
     16       5.8510      2.00000
     17       7.4375      2.00000
     18       7.4375      2.00000
     19      14.2128      0.00000
     20      14.2130      0.00000
     21      16.2289      0.00000
     22      16.2291      0.00000
     23      18.6302      0.00000
     24      18.6304      0.00000
     25      22.4733      0.00000
     26      22.4734      0.00000
     27      25.9439      0.00000
     28      25.9439      0.00000
     29      27.8106      0.00000
     30      27.8107      0.00000
     31      31.7123      0.00000
     32      31.7124      0.00000

 k-point   196 :       0.3750    0.0000    0.5000
  band No.  band energies     occupation 
      1      -7.7025      2.00000
      2      -7.7025      2.00000
      3      -5.8903      2.00000
      4      -5.8903      2.00000
      5      -5.7692      2.00000
      6      -5.7692      2.00000
      7      -5.5051      2.00000
      8      -5.5051      2.00000
      9      -5.3730      2.00000
     10      -5.3730      2.00000
     11      -4.9104      2.00000
     12      -4.9103      2.00000
     13       0.5913      2.00000
     14       0.5913      2.00000
     15       6.1911      2.00000
     16       6.1912      2.00000
     17       7.6464      2.00000
     18       7.6464      2.00000
     19      13.4768      0.00000
     20      13.4770      0.00000
     21      17.0308      0.00000
     22      17.0309      0.00000
     23      18.3497      0.00000
     24      18.3499      0.00000
     25      22.1978      0.00000
     26      22.1979      0.00000
     27      25.0796      0.00000
     28      25.0797      0.00000
     29      29.5953      0.00000
     30      29.5954      0.00000
     31      31.4239      0.00000
     32      31.4242      0.00000

 k-point   197 :       0.5000   -0.0000    0.5000
  band No.  band energies     occupation 
      1      -7.4920      2.00000
      2      -7.4920      2.00000
      3      -5.8930      2.00000
      4      -5.8930      2.00000
      5      -5.7614      2.00000
      6      -5.7614      2.00000
      7      -5.4972      2.00000
      8      -5.4972      2.00000
      9      -5.3315      2.00000
     10      -5.3315      2.00000
     11      -4.7430      2.00000
     12      -4.7429      2.00000
     13      -0.1935      2.00000
     14      -0.1934      2.00000
     15       6.3882      2.00000
     16       6.3883      2.00000
     17       7.7471      2.00000
     18       7.7471      2.00000
     19      13.0206      0.00000
     20      13.0209      0.00000
     21      17.4567      0.00000
     22      17.4570      0.00000
     23      18.3148      0.00000
     24      18.3149      0.00000
     25      22.2105      0.00000
     26      22.2106      0.00000
     27      24.1910      0.00000
     28      24.1912      0.00000
     29      30.1862      0.00000
     30      30.1865      0.00000
     31      32.2291      0.00000
     32      32.2295      0.00000

 k-point   198 :      -0.3750    0.0000    0.5000
  band No.  band energies     occupation 
      1      -7.7025      2.00000
      2      -7.7025      2.00000
      3      -5.8903      2.00000
      4      -5.8903      2.00000
      5      -5.7692      2.00000
      6      -5.7692      2.00000
      7      -5.5051      2.00000
      8      -5.5051      2.00000
      9      -5.3730      2.00000
     10      -5.3730      2.00000
     11      -4.9104      2.00000
     12      -4.9103      2.00000
     13       0.5913      2.00000
     14       0.5913      2.00000
     15       6.1911      2.00000
     16       6.1912      2.00000
     17       7.6464      2.00000
     18       7.6464      2.00000
     19      13.4768      0.00000
     20      13.4770      0.00000
     21      17.0308      0.00000
     22      17.0309      0.00000
     23      18.3497      0.00000
     24      18.3499      0.00000
     25      22.1978      0.00000
     26      22.1979      0.00000
     27      25.0796      0.00000
     28      25.0797      0.00000
     29      29.5953      0.00000
     30      29.5954      0.00000
     31      31.4239      0.00000
     32      31.4242      0.00000

 k-point   199 :      -0.2500   -0.0000    0.5000
  band No.  band energies     occupation 
      1      -8.2078      2.00000
      2      -8.2078      2.00000
      3      -5.8854      2.00000
      4      -5.8854      2.00000
      5      -5.7354      2.00000
      6      -5.7353      2.00000
      7      -5.5601      2.00000
      8      -5.5601      2.00000
      9      -5.4203      2.00000
     10      -5.4203      2.00000
     11      -5.1274      2.00000
     12      -5.1273      2.00000
     13       2.3046      2.00000
     14       2.3047      2.00000
     15       5.8510      2.00000
     16       5.8510      2.00000
     17       7.4375      2.00000
     18       7.4375      2.00000
     19      14.2128      0.00000
     20      14.2130      0.00000
     21      16.2289      0.00000
     22      16.2291      0.00000
     23      18.6302      0.00000
     24      18.6304      0.00000
     25      22.4733      0.00000
     26      22.4734      0.00000
     27      25.9439      0.00000
     28      25.9439      0.00000
     29      27.8106      0.00000
     30      27.8107      0.00000
     31      31.7123      0.00000
     32      31.7124      0.00000

 k-point   200 :      -0.1250    0.0000    0.5000
  band No.  band energies     occupation 
      1      -8.6744      2.00000
      2      -8.6744      2.00000
      3      -5.8686      2.00000
      4      -5.8686      2.00000
      5      -5.7081      2.00000
      6      -5.7081      2.00000
      7      -5.5694      2.00000
      8      -5.5693      2.00000
      9      -5.4361      2.00000
     10      -5.4361      2.00000
     11      -5.2751      2.00000
     12      -5.2750      2.00000
     13       3.7903      2.00000
     14       3.7904      2.00000
     15       5.8557      2.00000
     16       5.8557      2.00000
     17       7.4051      2.00000
     18       7.4052      2.00000
     19      13.4659      0.00000
     20      13.4659      0.00000
     21      16.8368      0.00000
     22      16.8369      0.00000
     23      18.7498      0.00000
     24      18.7499      0.00000
     25      22.4593      0.00000
     26      22.4595      0.00000
     27      25.0833      0.00000
     28      25.0834      0.00000
     29      28.6126      0.00000
     30      28.6127      0.00000
     31      31.6955      0.00000
     32      31.6956      0.00000

 k-point   201 :       0.0000    0.1250    0.5000
  band No.  band energies     occupation 
      1      -8.6744      2.00000
      2      -8.6744      2.00000
      3      -5.8686      2.00000
      4      -5.8686      2.00000
      5      -5.7081      2.00000
      6      -5.7081      2.00000
      7      -5.5694      2.00000
      8      -5.5693      2.00000
      9      -5.4361      2.00000
     10      -5.4361      2.00000
     11      -5.2751      2.00000
     12      -5.2750      2.00000
     13       3.7903      2.00000
     14       3.7904      2.00000
     15       5.8557      2.00000
     16       5.8557      2.00000
     17       7.4051      2.00000
     18       7.4052      2.00000
     19      13.4659      0.00000
     20      13.4659      0.00000
     21      16.8368      0.00000
     22      16.8369      0.00000
     23      18.7498      0.00000
     24      18.7499      0.00000
     25      22.4593      0.00000
     26      22.4595      0.00000
     27      25.0833      0.00000
     28      25.0834      0.00000
     29      28.6126      0.00000
     30      28.6127      0.00000
     31      31.6955      0.00000
     32      31.6956      0.00000

 k-point   202 :       0.1250    0.1250    0.5000
  band No.  band energies     occupation 
      1      -8.4207      2.00000
      2      -8.4207      2.00000
      3      -5.8658      2.00000
      4      -5.8657      2.00000
      5      -5.7185      2.00000
      6      -5.7185      2.00000
      7      -5.5559      2.00000
      8      -5.5559      2.00000
      9      -5.4641      2.00000
     10      -5.4641      2.00000
     11      -5.2203      2.00000
     12      -5.2203      2.00000
     13       3.1357      2.00000
     14       3.1357      2.00000
     15       6.0275      2.00000
     16       6.0275      2.00000
     17       6.6347      2.00000
     18       6.6348      2.00000
     19      14.5336      0.00000
     20      14.5336      0.00000
     21      16.6217      0.00000
     22      16.6218      0.00000
     23      18.1734      0.00000
     24      18.1735      0.00000
     25      24.1841      0.00000
     26      24.1841      0.00000
     27      25.6068      0.00000
     28      25.6070      0.00000
     29      28.0047      0.00000
     30      28.0047      0.00000
     31      30.8942      0.00000
     32      30.8943      0.00000

 k-point   203 :       0.2500    0.1250    0.5000
  band No.  band energies     occupation 
      1      -7.9631      2.00000
      2      -7.9630      2.00000
      3      -5.8426      2.00000
      4      -5.8426      2.00000
      5      -5.7104      2.00000
      6      -5.7103      2.00000
      7      -5.5482      2.00000
      8      -5.5482      2.00000
      9      -5.4914      2.00000
     10      -5.4914      2.00000
     11      -5.0476      2.00000
     12      -5.0475      2.00000
     13       1.9176      2.00000
     14       1.9177      2.00000
     15       5.7845      2.00000
     16       5.7845      2.00000
     17       6.5296      2.00000
     18       6.5297      2.00000
     19      14.9048      0.00000
     20      14.9049      0.00000
     21      16.6539      0.00000
     22      16.6540      0.00000
     23      18.1558      0.00000
     24      18.1559      0.00000
     25      23.8153      0.00000
     26      23.8154      0.00000
     27      25.5506      0.00000
     28      25.5506      0.00000
     29      28.5010      0.00000
     30      28.5011      0.00000
     31      29.9083      0.00000
     32      29.9084      0.00000

 k-point   204 :       0.3750    0.1250    0.5000
  band No.  band energies     occupation 
      1      -7.5884      2.00000
      2      -7.5884      2.00000
      3      -5.8562      2.00000
      4      -5.8562      2.00000
      5      -5.7332      2.00000
      6      -5.7331      2.00000
      7      -5.5397      2.00000
      8      -5.5397      2.00000
      9      -5.3981      2.00000
     10      -5.3980      2.00000
     11      -4.7094      2.00000
     12      -4.7093      2.00000
     13       0.5111      2.00000
     14       0.5112      2.00000
     15       5.8571      2.00000
     16       5.8572      2.00000
     17       6.8619      2.00000
     18       6.8619      2.00000
     19      14.0576      0.00000
     20      14.0578      0.00000
     21      16.9210      0.00000
     22      16.9212      0.00000
     23      18.4419      0.00000
     24      18.4421      0.00000
     25      22.4098      0.00000
     26      22.4099      0.00000
     27      25.0990      0.00000
     28      25.0991      0.00000
     29      29.2256      0.00000
     30      29.2258      0.00000
     31      31.0254      0.00000
     32      31.0256      0.00000

 k-point   205 :       0.5000    0.1250    0.5000
  band No.  band energies     occupation 
      1      -7.5322      2.00000
      2      -7.5322      2.00000
      3      -5.8633      2.00000
      4      -5.8633      2.00000
      5      -5.7990      2.00000
      6      -5.7990      2.00000
      7      -5.5350      2.00000
      8      -5.5350      2.00000
      9      -5.3373      2.00000
     10      -5.3373      2.00000
     11      -4.4395      2.00000
     12      -4.4395      2.00000
     13       0.0472      2.00000
     14       0.0473      2.00000
     15       6.1711      2.00000
     16       6.1712      2.00000
     17       6.9677      2.00000
     18       6.9677      2.00000
     19      13.6579      0.00000
     20      13.6581      0.00000
     21      16.4936      0.00000
     22      16.4937      0.00000
     23      18.4919      0.00000
     24      18.4921      0.00000
     25      21.3305      0.00000
     26      21.3306      0.00000
     27      25.7733      0.00000
     28      25.7735      0.00000
     29      29.2488      0.00000
     30      29.2490      0.00000
     31      31.8263      0.00000
     32      31.8265      0.00000

 k-point   206 :      -0.3750    0.1250    0.5000
  band No.  band energies     occupation 
      1      -7.8053      2.00000
      2      -7.8053      2.00000
      3      -5.8649      2.00000
      4      -5.8649      2.00000
      5      -5.8048      2.00000
      6      -5.8048      2.00000
      7      -5.5486      2.00000
      8      -5.5486      2.00000
      9      -5.3722      2.00000
     10      -5.3721      2.00000
     11      -4.6680      2.00000
     12      -4.6679      2.00000
     13       1.1275      2.00000
     14       1.1276      2.00000
     15       6.0156      2.00000
     16       6.0156      2.00000
     17       7.0450      2.00000
     18       7.0450      2.00000
     19      13.9447      0.00000
     20      13.9449      0.00000
     21      15.7989      0.00000
     22      15.7990      0.00000
     23      18.7296      0.00000
     24      18.7299      0.00000
     25      20.8418      0.00000
     26      20.8418      0.00000
     27      26.6202      0.00000
     28      26.6205      0.00000
     29      28.8131      0.00000
     30      28.8132      0.00000
     31      30.9592      0.00000
     32      30.9596      0.00000

 k-point   207 :      -0.2500    0.1250    0.5000
  band No.  band energies     occupation 
      1      -8.2524      2.00000
      2      -8.2524      2.00000
      3      -5.8358      2.00000
      4      -5.8358      2.00000
      5      -5.7425      2.00000
      6      -5.7425      2.00000
      7      -5.6118      2.00000
      8      -5.6117      2.00000
      9      -5.4350      2.00000
     10      -5.4350      2.00000
     11      -4.9825      2.00000
     12      -4.9825      2.00000
     13       2.9742      2.00000
     14       2.9742      2.00000
     15       5.5169      2.00000
     16       5.5169      2.00000
     17       7.0218      2.00000
     18       7.0219      2.00000
     19      14.3401      0.00000
     20      14.3401      0.00000
     21      15.6308      0.00000
     22      15.6310      0.00000
     23      19.3004      0.00000
     24      19.3005      0.00000
     25      20.5565      0.00000
     26      20.5566      0.00000
     27      25.8897      0.00000
     28      25.8898      0.00000
     29      28.0054      0.00000
     30      28.0056      0.00000
     31      31.8242      0.00000
     32      31.8246      0.00000

 k-point   208 :      -0.1250    0.1250    0.5000
  band No.  band energies     occupation 
      1      -8.6049      2.00000
      2      -8.6048      2.00000
      3      -5.8144      2.00000
      4      -5.8144      2.00000
      5      -5.7345      2.00000
      6      -5.7345      2.00000
      7      -5.6063      2.00000
      8      -5.6063      2.00000
      9      -5.4589      2.00000
     10      -5.4588      2.00000
     11      -5.1800      2.00000
     12      -5.1799      2.00000
     13       4.0826      2.00000
     14       4.0827      2.00000
     15       5.5416      2.00000
     16       5.5418      2.00000
     17       7.0939      2.00000
     18       7.0939      2.00000
     19      13.7563      0.00000
     20      13.7564      0.00000
     21      16.5070      0.00000
     22      16.5071      0.00000
     23      19.3401      0.00000
     24      19.3402      0.00000
     25      20.8053      0.00000
     26      20.8056      0.00000
     27      24.9394      0.00000
     28      24.9395      0.00000
     29      28.5559      0.00000
     30      28.5561      0.00000
     31      32.5125      0.00000
     32      32.5126      0.00000

 k-point   209 :       0.0000    0.2500    0.5000
  band No.  band energies     occupation 
      1      -8.2078      2.00000
      2      -8.2078      2.00000
      3      -5.8854      2.00000
      4      -5.8854      2.00000
      5      -5.7354      2.00000
      6      -5.7353      2.00000
      7      -5.5601      2.00000
      8      -5.5601      2.00000
      9      -5.4203      2.00000
     10      -5.4203      2.00000
     11      -5.1274      2.00000
     12      -5.1273      2.00000
     13       2.3046      2.00000
     14       2.3047      2.00000
     15       5.8510      2.00000
     16       5.8510      2.00000
     17       7.4375      2.00000
     18       7.4375      2.00000
     19      14.2128      0.00000
     20      14.2130      0.00000
     21      16.2289      0.00000
     22      16.2291      0.00000
     23      18.6302      0.00000
     24      18.6304      0.00000
     25      22.4733      0.00000
     26      22.4734      0.00000
     27      25.9439      0.00000
     28      25.9439      0.00000
     29      27.8106      0.00000
     30      27.8107      0.00000
     31      31.7123      0.00000
     32      31.7124      0.00000

 k-point   210 :       0.1250    0.2500    0.5000
  band No.  band energies     occupation 
      1      -7.9631      2.00000
      2      -7.9630      2.00000
      3      -5.8426      2.00000
      4      -5.8426      2.00000
      5      -5.7104      2.00000
      6      -5.7103      2.00000
      7      -5.5482      2.00000
      8      -5.5482      2.00000
      9      -5.4914      2.00000
     10      -5.4914      2.00000
     11      -5.0476      2.00000
     12      -5.0475      2.00000
     13       1.9176      2.00000
     14       1.9177      2.00000
     15       5.7845      2.00000
     16       5.7845      2.00000
     17       6.5296      2.00000
     18       6.5297      2.00000
     19      14.9048      0.00000
     20      14.9049      0.00000
     21      16.6539      0.00000
     22      16.6540      0.00000
     23      18.1558      0.00000
     24      18.1559      0.00000
     25      23.8153      0.00000
     26      23.8154      0.00000
     27      25.5506      0.00000
     28      25.5506      0.00000
     29      28.5010      0.00000
     30      28.5011      0.00000
     31      29.9083      0.00000
     32      29.9084      0.00000

 k-point   211 :       0.2500    0.2500    0.5000
  band No.  band energies     occupation 
      1      -7.6801      2.00000
      2      -7.6800      2.00000
      3      -5.8226      2.00000
      4      -5.8226      2.00000
      5      -5.6532      2.00000
      6      -5.6532      2.00000
      7      -5.5983      2.00000
      8      -5.5983      2.00000
      9      -5.4862      2.00000
     10      -5.4862      2.00000
     11      -4.6857      2.00000
     12      -4.6857      2.00000
     13       1.5747      2.00000
     14       1.5748      2.00000
     15       4.5026      2.00000
     16       4.5026      2.00000
     17       6.6170      2.00000
     18       6.6170      2.00000
     19      15.2452      0.00000
     20      15.2453      0.00000
     21      16.6328      0.00000
     22      16.6329      0.00000
     23      17.7428      0.00000
     24      17.7430      0.00000
     25      23.2012      0.00000
     26      23.2012      0.00000
     27      25.3368      0.00000
     28      25.3369      0.00000
     29      28.9994      0.00000
     30      28.9995      0.00000
     31      31.5203      0.00000
     32      31.5206      0.00000

 k-point   212 :       0.3750    0.2500    0.5000
  band No.  band energies     occupation 
      1      -7.5591      2.00000
      2      -7.5590      2.00000
      3      -5.8723      2.00000
      4      -5.8723      2.00000
      5      -5.6890      2.00000
      6      -5.6890      2.00000
      7      -5.5645      2.00000
      8      -5.5645      2.00000
      9      -5.3894      2.00000
     10      -5.3894      2.00000
     11      -4.0759      2.00000
     12      -4.0759      2.00000
     13       0.8648      2.00000
     14       0.8649      2.00000
     15       4.1328      2.00000
     16       4.1329      2.00000
     17       6.7785      2.00000
     18       6.7785      2.00000
     19      14.8011      0.00000
     20      14.8013      0.00000
     21      15.6917      0.00000
     22      15.6918      0.00000
     23      17.8780      0.00000
     24      17.8782      0.00000
     25      22.4602      0.00000
     26      22.4604      0.00000
     27      25.5505      0.00000
     28      25.5507      0.00000
     29      28.9013      0.00000
     30      28.9013      0.00000
     31      32.9511      0.00000
     32      32.9513      0.00000

 k-point   213 :       0.5000    0.2500    0.5000
  band No.  band energies     occupation 
      1      -7.6351      2.00000
      2      -7.6351      2.00000
      3      -5.8952      2.00000
      4      -5.8952      2.00000
      5      -5.6950      2.00000
      6      -5.6949      2.00000
      7      -5.5786      2.00000
      8      -5.5786      2.00000
      9      -5.3314      2.00000
     10      -5.3314      2.00000
     11      -3.8090      2.00000
     12      -3.8090      2.00000
     13       0.7690      2.00000
     14       0.7690      2.00000
     15       4.6197      2.00000
     16       4.6198      2.00000
     17       6.5439      2.00000
     18       6.5439      2.00000
     19      13.6902      0.00000
     20      13.6904      0.00000
     21      15.3533      0.00000
     22      15.3534      0.00000
     23      18.5658      0.00000
     24      18.5660      0.00000
     25      21.5088      0.00000
     26      21.5090      0.00000
     27      25.6380      0.00000
     28      25.6383      0.00000
     29      29.0727      0.00000
     30      29.0728      0.00000
     31      32.6758      0.00000
     32      32.6761      0.00000

 k-point   214 :      -0.3750    0.2500    0.5000
  band No.  band energies     occupation 
      1      -7.8435      2.00000
      2      -7.8434      2.00000
      3      -5.8660      2.00000
      4      -5.8660      2.00000
      5      -5.6905      2.00000
      6      -5.6904      2.00000
      7      -5.6053      2.00000
      8      -5.6052      2.00000
      9      -5.3656      2.00000
     10      -5.3656      2.00000
     11      -4.2235      2.00000
     12      -4.2234      2.00000
     13       2.0411      2.00000
     14       2.0411      2.00000
     15       4.8165      2.00000
     16       4.8166      2.00000
     17       6.2939      2.00000
     18       6.2940      2.00000
     19      12.9520      0.00000
     20      12.9522      0.00000
     21      15.7932      0.00000
     22      15.7933      0.00000
     23      19.3656      0.00000
     24      19.3656      0.00000
     25      20.5959      0.00000
     26      20.5961      0.00000
     27      25.8047      0.00000
     28      25.8051      0.00000
     29      28.0009      0.00000
     30      28.0010      0.00000
     31      32.2603      0.00000
     32      32.2606      0.00000

 k-point   215 :      -0.2500    0.2500    0.5000
  band No.  band energies     occupation 
      1      -8.0935      2.00000
      2      -8.0935      2.00000
      3      -5.8107      2.00000
      4      -5.8107      2.00000
      5      -5.7032      2.00000
      6      -5.7032      2.00000
      7      -5.6406      2.00000
      8      -5.6405      2.00000
      9      -5.4339      2.00000
     10      -5.4339      2.00000
     11      -4.6936      2.00000
     12      -4.6936      2.00000
     13       3.5744      2.00000
     14       3.5745      2.00000
     15       4.4263      2.00000
     16       4.4264      2.00000
     17       6.4881      2.00000
     18       6.4882      2.00000
     19      13.4347      0.00000
     20      13.4347      0.00000
     21      15.9625      0.00000
     22      15.9626      0.00000
     23      19.6468      0.00000
     24      19.6469      0.00000
     25      20.2109      0.00000
     26      20.2112      0.00000
     27      26.1780      0.00000
     28      26.1781      0.00000
     29      26.7563      0.00000
     30      26.7567      0.00000
     31      32.1950      0.00000
     32      32.1955      0.00000

 k-point   216 :      -0.1250    0.2500    0.5000
  band No.  band energies     occupation 
      1      -8.2524      2.00000
      2      -8.2524      2.00000
      3      -5.8358      2.00000
      4      -5.8358      2.00000
      5      -5.7425      2.00000
      6      -5.7425      2.00000
      7      -5.6118      2.00000
      8      -5.6117      2.00000
      9      -5.4350      2.00000
     10      -5.4350      2.00000
     11      -4.9825      2.00000
     12      -4.9825      2.00000
     13       2.9742      2.00000
     14       2.9742      2.00000
     15       5.5169      2.00000
     16       5.5169      2.00000
     17       7.0218      2.00000
     18       7.0219      2.00000
     19      14.3401      0.00000
     20      14.3401      0.00000
     21      15.6308      0.00000
     22      15.6310      0.00000
     23      19.3004      0.00000
     24      19.3005      0.00000
     25      20.5565      0.00000
     26      20.5566      0.00000
     27      25.8897      0.00000
     28      25.8898      0.00000
     29      28.0054      0.00000
     30      28.0056      0.00000
     31      31.8242      0.00000
     32      31.8246      0.00000

 k-point   217 :      -0.0000    0.3750    0.5000
  band No.  band energies     occupation 
      1      -7.7025      2.00000
      2      -7.7025      2.00000
      3      -5.8903      2.00000
      4      -5.8903      2.00000
      5      -5.7692      2.00000
      6      -5.7692      2.00000
      7      -5.5051      2.00000
      8      -5.5051      2.00000
      9      -5.3730      2.00000
     10      -5.3730      2.00000
     11      -4.9104      2.00000
     12      -4.9103      2.00000
     13       0.5913      2.00000
     14       0.5913      2.00000
     15       6.1911      2.00000
     16       6.1912      2.00000
     17       7.6464      2.00000
     18       7.6464      2.00000
     19      13.4768      0.00000
     20      13.4770      0.00000
     21      17.0308      0.00000
     22      17.0309      0.00000
     23      18.3497      0.00000
     24      18.3499      0.00000
     25      22.1978      0.00000
     26      22.1979      0.00000
     27      25.0796      0.00000
     28      25.0797      0.00000
     29      29.5953      0.00000
     30      29.5954      0.00000
     31      31.4239      0.00000
     32      31.4242      0.00000

 k-point   218 :       0.1250    0.3750    0.5000
  band No.  band energies     occupation 
      1      -7.5884      2.00000
      2      -7.5884      2.00000
      3      -5.8562      2.00000
      4      -5.8562      2.00000
      5      -5.7332      2.00000
      6      -5.7331      2.00000
      7      -5.5397      2.00000
      8      -5.5397      2.00000
      9      -5.3981      2.00000
     10      -5.3980      2.00000
     11      -4.7094      2.00000
     12      -4.7093      2.00000
     13       0.5111      2.00000
     14       0.5112      2.00000
     15       5.8571      2.00000
     16       5.8572      2.00000
     17       6.8619      2.00000
     18       6.8619      2.00000
     19      14.0576      0.00000
     20      14.0578      0.00000
     21      16.9210      0.00000
     22      16.9212      0.00000
     23      18.4419      0.00000
     24      18.4421      0.00000
     25      22.4098      0.00000
     26      22.4099      0.00000
     27      25.0990      0.00000
     28      25.0991      0.00000
     29      29.2256      0.00000
     30      29.2258      0.00000
     31      31.0254      0.00000
     32      31.0256      0.00000

 k-point   219 :       0.2500    0.3750    0.5000
  band No.  band energies     occupation 
      1      -7.5591      2.00000
      2      -7.5590      2.00000
      3      -5.8723      2.00000
      4      -5.8723      2.00000
      5      -5.6890      2.00000
      6      -5.6890      2.00000
      7      -5.5645      2.00000
      8      -5.5645      2.00000
      9      -5.3894      2.00000
     10      -5.3894      2.00000
     11      -4.0759      2.00000
     12      -4.0759      2.00000
     13       0.8648      2.00000
     14       0.8649      2.00000
     15       4.1328      2.00000
     16       4.1329      2.00000
     17       6.7785      2.00000
     18       6.7785      2.00000
     19      14.8011      0.00000
     20      14.8013      0.00000
     21      15.6917      0.00000
     22      15.6918      0.00000
     23      17.8780      0.00000
     24      17.8782      0.00000
     25      22.4602      0.00000
     26      22.4604      0.00000
     27      25.5505      0.00000
     28      25.5507      0.00000
     29      28.9013      0.00000
     30      28.9013      0.00000
     31      32.9511      0.00000
     32      32.9513      0.00000

 k-point   220 :       0.3750    0.3750    0.5000
  band No.  band energies     occupation 
      1      -7.6327      2.00000
      2      -7.6326      2.00000
      3      -5.8843      2.00000
      4      -5.8843      2.00000
      5      -5.6985      2.00000
      6      -5.6985      2.00000
      7      -5.5260      2.00000
      8      -5.5260      2.00000
      9      -5.3297      2.00000
     10      -5.3296      2.00000
     11      -3.3416      2.00000
     12      -3.3416      2.00000
     13       1.4639      2.00000
     14       1.4640      2.00000
     15       2.7844      2.00000
     16       2.7845      2.00000
     17       6.5849      2.00000
     18       6.5850      2.00000
     19      13.4010      0.00000
     20      13.4011      0.00000
     21      16.2296      0.00000
     22      16.2298      0.00000
     23      17.2377      0.00000
     24      17.2378      0.00000
     25      22.1787      0.00000
     26      22.1788      0.00000
     27      25.8248      0.00000
     28      25.8250      0.00000
     29      28.9119      0.00000
     30      28.9120      0.00000
     31      33.4419      0.00000
     32      33.4420      0.00000

 k-point   221 :       0.5000    0.3750    0.5000
  band No.  band energies     occupation 
      1      -7.7384      2.00000
      2      -7.7383      2.00000
      3      -5.8724      2.00000
      4      -5.8724      2.00000
      5      -5.6859      2.00000
      6      -5.6859      2.00000
      7      -5.5558      2.00000
      8      -5.5558      2.00000
      9      -5.2697      2.00000
     10      -5.2696      2.00000
     11      -3.1300      2.00000
     12      -3.1300      2.00000
     13       1.7911      2.00000
     14       1.7912      2.00000
     15       3.1071      2.00000
     16       3.1072      2.00000
     17       5.9387      2.00000
     18       5.9388      2.00000
     19      12.1677      0.00000
     20      12.1678      0.00000
     21      16.4225      0.00000
     22      16.4227      0.00000
     23      18.1502      0.00000
     24      18.1503      0.00000
     25      20.8638      0.00000
     26      20.8639      0.00000
     27      25.9074      0.00000
     28      25.9076      0.00000
     29      29.2214      0.00000
     30      29.2215      0.00000
     31      33.1658      0.00000
     32      33.1660      0.00000

 k-point   222 :      -0.3750    0.3750    0.5000
  band No.  band energies     occupation 
      1      -7.8169      2.00000
      2      -7.8169      2.00000
      3      -5.8570      2.00000
      4      -5.8570      2.00000
      5      -5.6743      2.00000
      6      -5.6743      2.00000
      7      -5.5854      2.00000
      8      -5.5854      2.00000
      9      -5.3023      2.00000
     10      -5.3022      2.00000
     11      -3.6255      2.00000
     12      -3.6255      2.00000
     13       2.6600      2.00000
     14       2.6601      2.00000
     15       3.4448      2.00000
     16       3.4449      2.00000
     17       5.7804      2.00000
     18       5.7805      2.00000
     19      11.9142      0.00000
     20      11.9143      0.00000
     21      16.3763      0.00000
     22      16.3765      0.00000
     23      19.3265      0.00000
     24      19.3265      0.00000
     25      20.1668      0.00000
     26      20.1669      0.00000
     27      25.6676      0.00000
     28      25.6679      0.00000
     29      28.4705      0.00000
     30      28.4706      0.00000
     31      32.8024      0.00000
     32      32.8026      0.00000

 k-point   223 :      -0.2500    0.3750    0.5000
  band No.  band energies     occupation 
      1      -7.8435      2.00000
      2      -7.8434      2.00000
      3      -5.8660      2.00000
      4      -5.8660      2.00000
      5      -5.6905      2.00000
      6      -5.6904      2.00000
      7      -5.6053      2.00000
      8      -5.6052      2.00000
      9      -5.3656      2.00000
     10      -5.3656      2.00000
     11      -4.2235      2.00000
     12      -4.2234      2.00000
     13       2.0411      2.00000
     14       2.0411      2.00000
     15       4.8165      2.00000
     16       4.8166      2.00000
     17       6.2939      2.00000
     18       6.2940      2.00000
     19      12.9520      0.00000
     20      12.9522      0.00000
     21      15.7932      0.00000
     22      15.7933      0.00000
     23      19.3656      0.00000
     24      19.3656      0.00000
     25      20.5959      0.00000
     26      20.5961      0.00000
     27      25.8047      0.00000
     28      25.8051      0.00000
     29      28.0009      0.00000
     30      28.0010      0.00000
     31      32.2603      0.00000
     32      32.2606      0.00000

 k-point   224 :      -0.1250    0.3750    0.5000
  band No.  band energies     occupation 
      1      -7.8053      2.00000
      2      -7.8053      2.00000
      3      -5.8649      2.00000
      4      -5.8649      2.00000
      5      -5.8048      2.00000
      6      -5.8048      2.00000
      7      -5.5486      2.00000
      8      -5.5486      2.00000
      9      -5.3722      2.00000
     10      -5.3721      2.00000
     11      -4.6680      2.00000
     12      -4.6679      2.00000
     13       1.1275      2.00000
     14       1.1276      2.00000
     15       6.0156      2.00000
     16       6.0156      2.00000
     17       7.0450      2.00000
     18       7.0450      2.00000
     19      13.9447      0.00000
     20      13.9449      0.00000
     21      15.7989      0.00000
     22      15.7990      0.00000
     23      18.7296      0.00000
     24      18.7299      0.00000
     25      20.8418      0.00000
     26      20.8418      0.00000
     27      26.6202      0.00000
     28      26.6205      0.00000
     29      28.8131      0.00000
     30      28.8132      0.00000
     31      30.9592      0.00000
     32      30.9596      0.00000

 k-point   225 :       0.0000    0.5000    0.5000
  band No.  band energies     occupation 
      1      -7.4920      2.00000
      2      -7.4920      2.00000
      3      -5.8930      2.00000
      4      -5.8930      2.00000
      5      -5.7614      2.00000
      6      -5.7614      2.00000
      7      -5.4972      2.00000
      8      -5.4972      2.00000
      9      -5.3315      2.00000
     10      -5.3315      2.00000
     11      -4.7430      2.00000
     12      -4.7429      2.00000
     13      -0.1935      2.00000
     14      -0.1934      2.00000
     15       6.3882      2.00000
     16       6.3883      2.00000
     17       7.7471      2.00000
     18       7.7471      2.00000
     19      13.0206      0.00000
     20      13.0209      0.00000
     21      17.4567      0.00000
     22      17.4570      0.00000
     23      18.3148      0.00000
     24      18.3149      0.00000
     25      22.2105      0.00000
     26      22.2106      0.00000
     27      24.1910      0.00000
     28      24.1912      0.00000
     29      30.1862      0.00000
     30      30.1865      0.00000
     31      32.2291      0.00000
     32      32.2295      0.00000

 k-point   226 :       0.1250    0.5000    0.5000
  band No.  band energies     occupation 
      1      -7.5322      2.00000
      2      -7.5322      2.00000
      3      -5.8633      2.00000
      4      -5.8633      2.00000
      5      -5.7990      2.00000
      6      -5.7990      2.00000
      7      -5.5350      2.00000
      8      -5.5350      2.00000
      9      -5.3373      2.00000
     10      -5.3373      2.00000
     11      -4.4395      2.00000
     12      -4.4395      2.00000
     13       0.0472      2.00000
     14       0.0473      2.00000
     15       6.1711      2.00000
     16       6.1712      2.00000
     17       6.9677      2.00000
     18       6.9677      2.00000
     19      13.6579      0.00000
     20      13.6581      0.00000
     21      16.4936      0.00000
     22      16.4937      0.00000
     23      18.4919      0.00000
     24      18.4921      0.00000
     25      21.3305      0.00000
     26      21.3306      0.00000
     27      25.7733      0.00000
     28      25.7735      0.00000
     29      29.2488      0.00000
     30      29.2490      0.00000
     31      31.8263      0.00000
     32      31.8265      0.00000

 k-point   227 :       0.2500    0.5000    0.5000
  band No.  band energies     occupation 
      1      -7.6351      2.00000
      2      -7.6351      2.00000
      3      -5.8952      2.00000
      4      -5.8952      2.00000
      5      -5.6950      2.00000
      6      -5.6949      2.00000
      7      -5.5786      2.00000
      8      -5.5786      2.00000
      9      -5.3314      2.00000
     10      -5.3314      2.00000
     11      -3.8090      2.00000
     12      -3.8090      2.00000
     13       0.7690      2.00000
     14       0.7690      2.00000
     15       4.6197      2.00000
     16       4.6198      2.00000
     17       6.5439      2.00000
     18       6.5439      2.00000
     19      13.6902      0.00000
     20      13.6904      0.00000
     21      15.3533      0.00000
     22      15.3534      0.00000
     23      18.5658      0.00000
     24      18.5660      0.00000
     25      21.5088      0.00000
     26      21.5090      0.00000
     27      25.6380      0.00000
     28      25.6383      0.00000
     29      29.0727      0.00000
     30      29.0728      0.00000
     31      32.6758      0.00000
     32      32.6761      0.00000

 k-point   228 :       0.3750    0.5000    0.5000
  band No.  band energies     occupation 
      1      -7.7384      2.00000
      2      -7.7383      2.00000
      3      -5.8724      2.00000
      4      -5.8724      2.00000
      5      -5.6859      2.00000
      6      -5.6859      2.00000
      7      -5.5558      2.00000
      8      -5.5558      2.00000
      9      -5.2697      2.00000
     10      -5.2696      2.00000
     11      -3.1300      2.00000
     12      -3.1300      2.00000
     13       1.7911      2.00000
     14       1.7912      2.00000
     15       3.1071      2.00000
     16       3.1072      2.00000
     17       5.9387      2.00000
     18       5.9388      2.00000
     19      12.1677      0.00000
     20      12.1678      0.00000
     21      16.4225      0.00000
     22      16.4227      0.00000
     23      18.1502      0.00000
     24      18.1503      0.00000
     25      20.8638      0.00000
     26      20.8639      0.00000
     27      25.9074      0.00000
     28      25.9076      0.00000
     29      29.2214      0.00000
     30      29.2215      0.00000
     31      33.1658      0.00000
     32      33.1660      0.00000

 k-point   229 :       0.5000    0.5000    0.5000
  band No.  band energies     occupation 
      1      -7.7800      2.00000
      2      -7.7800      2.00000
      3      -5.8594      2.00000
      4      -5.8594      2.00000
      5      -5.6803      2.00000
      6      -5.6803      2.00000
      7      -5.5649      2.00000
      8      -5.5649      2.00000
      9      -5.2210      2.00000
     10      -5.2209      2.00000
     11      -2.7826      2.00000
     12      -2.7825      2.00000
     13       1.9633      2.00000
     14       1.9634      2.00000
     15       3.0620      2.00000
     16       3.0621      2.00000
     17       5.2650      2.00000
     18       5.2651      2.00000
     19      11.6636      0.00000
     20      11.6637      0.00000
     21      16.8019      0.00000
     22      16.8022      0.00000
     23      19.1076      0.00000
     24      19.1077      0.00000
     25      19.1331      0.00000
     26      19.1331      0.00000
     27      26.3273      0.00000
     28      26.3276      0.00000
     29      29.5885      0.00000
     30      29.5886      0.00000
     31      33.2800      0.00000
     32      33.2801      0.00000

 k-point   230 :      -0.3750    0.5000    0.5000
  band No.  band energies     occupation 
      1      -7.7384      2.00000
      2      -7.7383      2.00000
      3      -5.8724      2.00000
      4      -5.8724      2.00000
      5      -5.6859      2.00000
      6      -5.6859      2.00000
      7      -5.5558      2.00000
      8      -5.5558      2.00000
      9      -5.2697      2.00000
     10      -5.2696      2.00000
     11      -3.1300      2.00000
     12      -3.1300      2.00000
     13       1.7911      2.00000
     14       1.7912      2.00000
     15       3.1071      2.00000
     16       3.1072      2.00000
     17       5.9387      2.00000
     18       5.9388      2.00000
     19      12.1677      0.00000
     20      12.1678      0.00000
     21      16.4225      0.00000
     22      16.4227      0.00000
     23      18.1502      0.00000
     24      18.1503      0.00000
     25      20.8638      0.00000
     26      20.8639      0.00000
     27      25.9074      0.00000
     28      25.9076      0.00000
     29      29.2214      0.00000
     30      29.2215      0.00000
     31      33.1658      0.00000
     32      33.1660      0.00000

 k-point   231 :      -0.2500    0.5000    0.5000
  band No.  band energies     occupation 
      1      -7.6351      2.00000
      2      -7.6351      2.00000
      3      -5.8952      2.00000
      4      -5.8952      2.00000
      5      -5.6950      2.00000
      6      -5.6949      2.00000
      7      -5.5786      2.00000
      8      -5.5786      2.00000
      9      -5.3314      2.00000
     10      -5.3314      2.00000
     11      -3.8090      2.00000
     12      -3.8090      2.00000
     13       0.7690      2.00000
     14       0.7690      2.00000
     15       4.6197      2.00000
     16       4.6198      2.00000
     17       6.5439      2.00000
     18       6.5439      2.00000
     19      13.6902      0.00000
     20      13.6904      0.00000
     21      15.3533      0.00000
     22      15.3534      0.00000
     23      18.5658      0.00000
     24      18.5660      0.00000
     25      21.5088      0.00000
     26      21.5090      0.00000
     27      25.6380      0.00000
     28      25.6383      0.00000
     29      29.0727      0.00000
     30      29.0728      0.00000
     31      32.6758      0.00000
     32      32.6761      0.00000

 k-point   232 :      -0.1250    0.5000    0.5000
  band No.  band energies     occupation 
      1      -7.5322      2.00000
      2      -7.5322      2.00000
      3      -5.8633      2.00000
      4      -5.8633      2.00000
      5      -5.7990      2.00000
      6      -5.7990      2.00000
      7      -5.5350      2.00000
      8      -5.5350      2.00000
      9      -5.3373      2.00000
     10      -5.3373      2.00000
     11      -4.4395      2.00000
     12      -4.4395      2.00000
     13       0.0472      2.00000
     14       0.0473      2.00000
     15       6.1711      2.00000
     16       6.1712      2.00000
     17       6.9677      2.00000
     18       6.9677      2.00000
     19      13.6579      0.00000
     20      13.6581      0.00000
     21      16.4936      0.00000
     22      16.4937      0.00000
     23      18.4919      0.00000
     24      18.4921      0.00000
     25      21.3305      0.00000
     26      21.3306      0.00000
     27      25.7733      0.00000
     28      25.7735      0.00000
     29      29.2488      0.00000
     30      29.2490      0.00000
     31      31.8263      0.00000
     32      31.8265      0.00000

 k-point   233 :      -0.0000   -0.3750    0.5000
  band No.  band energies     occupation 
      1      -7.7025      2.00000
      2      -7.7025      2.00000
      3      -5.8903      2.00000
      4      -5.8903      2.00000
      5      -5.7692      2.00000
      6      -5.7692      2.00000
      7      -5.5051      2.00000
      8      -5.5051      2.00000
      9      -5.3730      2.00000
     10      -5.3730      2.00000
     11      -4.9104      2.00000
     12      -4.9103      2.00000
     13       0.5913      2.00000
     14       0.5913      2.00000
     15       6.1911      2.00000
     16       6.1912      2.00000
     17       7.6464      2.00000
     18       7.6464      2.00000
     19      13.4768      0.00000
     20      13.4770      0.00000
     21      17.0308      0.00000
     22      17.0309      0.00000
     23      18.3497      0.00000
     24      18.3499      0.00000
     25      22.1978      0.00000
     26      22.1979      0.00000
     27      25.0796      0.00000
     28      25.0797      0.00000
     29      29.5953      0.00000
     30      29.5954      0.00000
     31      31.4239      0.00000
     32      31.4242      0.00000

 k-point   234 :       0.1250   -0.3750    0.5000
  band No.  band energies     occupation 
      1      -7.8053      2.00000
      2      -7.8053      2.00000
      3      -5.8649      2.00000
      4      -5.8649      2.00000
      5      -5.8048      2.00000
      6      -5.8048      2.00000
      7      -5.5486      2.00000
      8      -5.5486      2.00000
      9      -5.3722      2.00000
     10      -5.3721      2.00000
     11      -4.6680      2.00000
     12      -4.6679      2.00000
     13       1.1275      2.00000
     14       1.1276      2.00000
     15       6.0156      2.00000
     16       6.0156      2.00000
     17       7.0450      2.00000
     18       7.0450      2.00000
     19      13.9447      0.00000
     20      13.9449      0.00000
     21      15.7989      0.00000
     22      15.7990      0.00000
     23      18.7296      0.00000
     24      18.7299      0.00000
     25      20.8418      0.00000
     26      20.8418      0.00000
     27      26.6202      0.00000
     28      26.6205      0.00000
     29      28.8131      0.00000
     30      28.8132      0.00000
     31      30.9592      0.00000
     32      30.9596      0.00000

 k-point   235 :       0.2500   -0.3750    0.5000
  band No.  band energies     occupation 
      1      -7.8435      2.00000
      2      -7.8434      2.00000
      3      -5.8660      2.00000
      4      -5.8660      2.00000
      5      -5.6905      2.00000
      6      -5.6904      2.00000
      7      -5.6053      2.00000
      8      -5.6052      2.00000
      9      -5.3656      2.00000
     10      -5.3656      2.00000
     11      -4.2235      2.00000
     12      -4.2234      2.00000
     13       2.0411      2.00000
     14       2.0411      2.00000
     15       4.8165      2.00000
     16       4.8166      2.00000
     17       6.2939      2.00000
     18       6.2940      2.00000
     19      12.9520      0.00000
     20      12.9522      0.00000
     21      15.7932      0.00000
     22      15.7933      0.00000
     23      19.3656      0.00000
     24      19.3656      0.00000
     25      20.5959      0.00000
     26      20.5961      0.00000
     27      25.8047      0.00000
     28      25.8051      0.00000
     29      28.0009      0.00000
     30      28.0010      0.00000
     31      32.2603      0.00000
     32      32.2606      0.00000

 k-point   236 :       0.3750   -0.3750    0.5000
  band No.  band energies     occupation 
      1      -7.8169      2.00000
      2      -7.8169      2.00000
      3      -5.8570      2.00000
      4      -5.8570      2.00000
      5      -5.6743      2.00000
      6      -5.6743      2.00000
      7      -5.5854      2.00000
      8      -5.5854      2.00000
      9      -5.3023      2.00000
     10      -5.3022      2.00000
     11      -3.6255      2.00000
     12      -3.6255      2.00000
     13       2.6600      2.00000
     14       2.6601      2.00000
     15       3.4448      2.00000
     16       3.4449      2.00000
     17       5.7804      2.00000
     18       5.7805      2.00000
     19      11.9142      0.00000
     20      11.9143      0.00000
     21      16.3763      0.00000
     22      16.3765      0.00000
     23      19.3265      0.00000
     24      19.3265      0.00000
     25      20.1668      0.00000
     26      20.1669      0.00000
     27      25.6676      0.00000
     28      25.6679      0.00000
     29      28.4705      0.00000
     30      28.4706      0.00000
     31      32.8024      0.00000
     32      32.8026      0.00000

 k-point   237 :       0.5000   -0.3750    0.5000
  band No.  band energies     occupation 
      1      -7.7384      2.00000
      2      -7.7383      2.00000
      3      -5.8724      2.00000
      4      -5.8724      2.00000
      5      -5.6859      2.00000
      6      -5.6859      2.00000
      7      -5.5558      2.00000
      8      -5.5558      2.00000
      9      -5.2697      2.00000
     10      -5.2696      2.00000
     11      -3.1300      2.00000
     12      -3.1300      2.00000
     13       1.7911      2.00000
     14       1.7912      2.00000
     15       3.1071      2.00000
     16       3.1072      2.00000
     17       5.9387      2.00000
     18       5.9388      2.00000
     19      12.1677      0.00000
     20      12.1678      0.00000
     21      16.4225      0.00000
     22      16.4227      0.00000
     23      18.1502      0.00000
     24      18.1503      0.00000
     25      20.8638      0.00000
     26      20.8639      0.00000
     27      25.9074      0.00000
     28      25.9076      0.00000
     29      29.2214      0.00000
     30      29.2215      0.00000
     31      33.1658      0.00000
     32      33.1660      0.00000

 k-point   238 :      -0.3750   -0.3750    0.5000
  band No.  band energies     occupation 
      1      -7.6327      2.00000
      2      -7.6326      2.00000
      3      -5.8843      2.00000
      4      -5.8843      2.00000
      5      -5.6985      2.00000
      6      -5.6985      2.00000
      7      -5.5260      2.00000
      8      -5.5260      2.00000
      9      -5.3297      2.00000
     10      -5.3296      2.00000
     11      -3.3416      2.00000
     12      -3.3416      2.00000
     13       1.4639      2.00000
     14       1.4640      2.00000
     15       2.7844      2.00000
     16       2.7845      2.00000
     17       6.5849      2.00000
     18       6.5850      2.00000
     19      13.4010      0.00000
     20      13.4011      0.00000
     21      16.2296      0.00000
     22      16.2298      0.00000
     23      17.2377      0.00000
     24      17.2378      0.00000
     25      22.1787      0.00000
     26      22.1788      0.00000
     27      25.8248      0.00000
     28      25.8250      0.00000
     29      28.9119      0.00000
     30      28.9120      0.00000
     31      33.4419      0.00000
     32      33.4420      0.00000

 k-point   239 :      -0.2500   -0.3750    0.5000
  band No.  band energies     occupation 
      1      -7.5591      2.00000
      2      -7.5590      2.00000
      3      -5.8723      2.00000
      4      -5.8723      2.00000
      5      -5.6890      2.00000
      6      -5.6890      2.00000
      7      -5.5645      2.00000
      8      -5.5645      2.00000
      9      -5.3894      2.00000
     10      -5.3894      2.00000
     11      -4.0759      2.00000
     12      -4.0759      2.00000
     13       0.8648      2.00000
     14       0.8649      2.00000
     15       4.1328      2.00000
     16       4.1329      2.00000
     17       6.7785      2.00000
     18       6.7785      2.00000
     19      14.8011      0.00000
     20      14.8013      0.00000
     21      15.6917      0.00000
     22      15.6918      0.00000
     23      17.8780      0.00000
     24      17.8782      0.00000
     25      22.4602      0.00000
     26      22.4604      0.00000
     27      25.5505      0.00000
     28      25.5507      0.00000
     29      28.9013      0.00000
     30      28.9013      0.00000
     31      32.9511      0.00000
     32      32.9513      0.00000

 k-point   240 :      -0.1250   -0.3750    0.5000
  band No.  band energies     occupation 
      1      -7.5884      2.00000
      2      -7.5884      2.00000
      3      -5.8562      2.00000
      4      -5.8562      2.00000
      5      -5.7332      2.00000
      6      -5.7331      2.00000
      7      -5.5397      2.00000
      8      -5.5397      2.00000
      9      -5.3981      2.00000
     10      -5.3980      2.00000
     11      -4.7094      2.00000
     12      -4.7093      2.00000
     13       0.5111      2.00000
     14       0.5112      2.00000
     15       5.8571      2.00000
     16       5.8572      2.00000
     17       6.8619      2.00000
     18       6.8619      2.00000
     19      14.0576      0.00000
     20      14.0578      0.00000
     21      16.9210      0.00000
     22      16.9212      0.00000
     23      18.4419      0.00000
     24      18.4421      0.00000
     25      22.4098      0.00000
     26      22.4099      0.00000
     27      25.0990      0.00000
     28      25.0991      0.00000
     29      29.2256      0.00000
     30      29.2258      0.00000
     31      31.0254      0.00000
     32      31.0256      0.00000

 k-point   241 :      -0.0000   -0.2500    0.5000
  band No.  band energies     occupation 
      1      -8.2078      2.00000
      2      -8.2078      2.00000
      3      -5.8854      2.00000
      4      -5.8854      2.00000
      5      -5.7354      2.00000
      6      -5.7353      2.00000
      7      -5.5601      2.00000
      8      -5.5601      2.00000
      9      -5.4203      2.00000
     10      -5.4203      2.00000
     11      -5.1274      2.00000
     12      -5.1273      2.00000
     13       2.3046      2.00000
     14       2.3047      2.00000
     15       5.8510      2.00000
     16       5.8510      2.00000
     17       7.4375      2.00000
     18       7.4375      2.00000
     19      14.2128      0.00000
     20      14.2130      0.00000
     21      16.2289      0.00000
     22      16.2291      0.00000
     23      18.6302      0.00000
     24      18.6304      0.00000
     25      22.4733      0.00000
     26      22.4734      0.00000
     27      25.9439      0.00000
     28      25.9439      0.00000
     29      27.8106      0.00000
     30      27.8107      0.00000
     31      31.7123      0.00000
     32      31.7124      0.00000

 k-point   242 :       0.1250   -0.2500    0.5000
  band No.  band energies     occupation 
      1      -8.2524      2.00000
      2      -8.2524      2.00000
      3      -5.8358      2.00000
      4      -5.8358      2.00000
      5      -5.7425      2.00000
      6      -5.7425      2.00000
      7      -5.6118      2.00000
      8      -5.6117      2.00000
      9      -5.4350      2.00000
     10      -5.4350      2.00000
     11      -4.9825      2.00000
     12      -4.9825      2.00000
     13       2.9742      2.00000
     14       2.9742      2.00000
     15       5.5169      2.00000
     16       5.5169      2.00000
     17       7.0218      2.00000
     18       7.0219      2.00000
     19      14.3401      0.00000
     20      14.3401      0.00000
     21      15.6308      0.00000
     22      15.6310      0.00000
     23      19.3004      0.00000
     24      19.3005      0.00000
     25      20.5565      0.00000
     26      20.5566      0.00000
     27      25.8897      0.00000
     28      25.8898      0.00000
     29      28.0054      0.00000
     30      28.0056      0.00000
     31      31.8242      0.00000
     32      31.8246      0.00000

 k-point   243 :       0.2500   -0.2500    0.5000
  band No.  band energies     occupation 
      1      -8.0935      2.00000
      2      -8.0935      2.00000
      3      -5.8107      2.00000
      4      -5.8107      2.00000
      5      -5.7032      2.00000
      6      -5.7032      2.00000
      7      -5.6406      2.00000
      8      -5.6405      2.00000
      9      -5.4339      2.00000
     10      -5.4339      2.00000
     11      -4.6936      2.00000
     12      -4.6936      2.00000
     13       3.5744      2.00000
     14       3.5745      2.00000
     15       4.4263      2.00000
     16       4.4264      2.00000
     17       6.4881      2.00000
     18       6.4882      2.00000
     19      13.4347      0.00000
     20      13.4347      0.00000
     21      15.9625      0.00000
     22      15.9626      0.00000
     23      19.6468      0.00000
     24      19.6469      0.00000
     25      20.2109      0.00000
     26      20.2112      0.00000
     27      26.1780      0.00000
     28      26.1781      0.00000
     29      26.7563      0.00000
     30      26.7567      0.00000
     31      32.1950      0.00000
     32      32.1955      0.00000

 k-point   244 :       0.3750   -0.2500    0.5000
  band No.  band energies     occupation 
      1      -7.8435      2.00000
      2      -7.8434      2.00000
      3      -5.8660      2.00000
      4      -5.8660      2.00000
      5      -5.6905      2.00000
      6      -5.6904      2.00000
      7      -5.6053      2.00000
      8      -5.6052      2.00000
      9      -5.3656      2.00000
     10      -5.3656      2.00000
     11      -4.2235      2.00000
     12      -4.2234      2.00000
     13       2.0411      2.00000
     14       2.0411      2.00000
     15       4.8165      2.00000
     16       4.8166      2.00000
     17       6.2939      2.00000
     18       6.2940      2.00000
     19      12.9520      0.00000
     20      12.9522      0.00000
     21      15.7932      0.00000
     22      15.7933      0.00000
     23      19.3656      0.00000
     24      19.3656      0.00000
     25      20.5959      0.00000
     26      20.5961      0.00000
     27      25.8047      0.00000
     28      25.8051      0.00000
     29      28.0009      0.00000
     30      28.0010      0.00000
     31      32.2603      0.00000
     32      32.2606      0.00000

 k-point   245 :       0.5000   -0.2500    0.5000
  band No.  band energies     occupation 
      1      -7.6351      2.00000
      2      -7.6351      2.00000
      3      -5.8952      2.00000
      4      -5.8952      2.00000
      5      -5.6950      2.00000
      6      -5.6949      2.00000
      7      -5.5786      2.00000
      8      -5.5786      2.00000
      9      -5.3314      2.00000
     10      -5.3314      2.00000
     11      -3.8090      2.00000
     12      -3.8090      2.00000
     13       0.7690      2.00000
     14       0.7690      2.00000
     15       4.6197      2.00000
     16       4.6198      2.00000
     17       6.5439      2.00000
     18       6.5439      2.00000
     19      13.6902      0.00000
     20      13.6904      0.00000
     21      15.3533      0.00000
     22      15.3534      0.00000
     23      18.5658      0.00000
     24      18.5660      0.00000
     25      21.5088      0.00000
     26      21.5090      0.00000
     27      25.6380      0.00000
     28      25.6383      0.00000
     29      29.0727      0.00000
     30      29.0728      0.00000
     31      32.6758      0.00000
     32      32.6761      0.00000

 k-point   246 :      -0.3750   -0.2500    0.5000
  band No.  band energies     occupation 
      1      -7.5591      2.00000
      2      -7.5590      2.00000
      3      -5.8723      2.00000
      4      -5.8723      2.00000
      5      -5.6890      2.00000
      6      -5.6890      2.00000
      7      -5.5645      2.00000
      8      -5.5645      2.00000
      9      -5.3894      2.00000
     10      -5.3894      2.00000
     11      -4.0759      2.00000
     12      -4.0759      2.00000
     13       0.8648      2.00000
     14       0.8649      2.00000
     15       4.1328      2.00000
     16       4.1329      2.00000
     17       6.7785      2.00000
     18       6.7785      2.00000
     19      14.8011      0.00000
     20      14.8013      0.00000
     21      15.6917      0.00000
     22      15.6918      0.00000
     23      17.8780      0.00000
     24      17.8782      0.00000
     25      22.4602      0.00000
     26      22.4604      0.00000
     27      25.5505      0.00000
     28      25.5507      0.00000
     29      28.9013      0.00000
     30      28.9013      0.00000
     31      32.9511      0.00000
     32      32.9513      0.00000

 k-point   247 :      -0.2500   -0.2500    0.5000
  band No.  band energies     occupation 
      1      -7.6801      2.00000
      2      -7.6800      2.00000
      3      -5.8226      2.00000
      4      -5.8226      2.00000
      5      -5.6532      2.00000
      6      -5.6532      2.00000
      7      -5.5983      2.00000
      8      -5.5983      2.00000
      9      -5.4862      2.00000
     10      -5.4862      2.00000
     11      -4.6857      2.00000
     12      -4.6857      2.00000
     13       1.5747      2.00000
     14       1.5748      2.00000
     15       4.5026      2.00000
     16       4.5026      2.00000
     17       6.6170      2.00000
     18       6.6170      2.00000
     19      15.2452      0.00000
     20      15.2453      0.00000
     21      16.6328      0.00000
     22      16.6329      0.00000
     23      17.7428      0.00000
     24      17.7430      0.00000
     25      23.2012      0.00000
     26      23.2012      0.00000
     27      25.3368      0.00000
     28      25.3369      0.00000
     29      28.9994      0.00000
     30      28.9995      0.00000
     31      31.5203      0.00000
     32      31.5206      0.00000

 k-point   248 :      -0.1250   -0.2500    0.5000
  band No.  band energies     occupation 
      1      -7.9631      2.00000
      2      -7.9630      2.00000
      3      -5.8426      2.00000
      4      -5.8426      2.00000
      5      -5.7104      2.00000
      6      -5.7103      2.00000
      7      -5.5482      2.00000
      8      -5.5482      2.00000
      9      -5.4914      2.00000
     10      -5.4914      2.00000
     11      -5.0476      2.00000
     12      -5.0475      2.00000
     13       1.9176      2.00000
     14       1.9177      2.00000
     15       5.7845      2.00000
     16       5.7845      2.00000
     17       6.5296      2.00000
     18       6.5297      2.00000
     19      14.9048      0.00000
     20      14.9049      0.00000
     21      16.6539      0.00000
     22      16.6540      0.00000
     23      18.1558      0.00000
     24      18.1559      0.00000
     25      23.8153      0.00000
     26      23.8154      0.00000
     27      25.5506      0.00000
     28      25.5506      0.00000
     29      28.5010      0.00000
     30      28.5011      0.00000
     31      29.9083      0.00000
     32      29.9084      0.00000

 k-point   249 :      -0.0000   -0.1250    0.5000
  band No.  band energies     occupation 
      1      -8.6744      2.00000
      2      -8.6744      2.00000
      3      -5.8686      2.00000
      4      -5.8686      2.00000
      5      -5.7081      2.00000
      6      -5.7081      2.00000
      7      -5.5694      2.00000
      8      -5.5693      2.00000
      9      -5.4361      2.00000
     10      -5.4361      2.00000
     11      -5.2751      2.00000
     12      -5.2750      2.00000
     13       3.7903      2.00000
     14       3.7904      2.00000
     15       5.8557      2.00000
     16       5.8557      2.00000
     17       7.4051      2.00000
     18       7.4052      2.00000
     19      13.4659      0.00000
     20      13.4659      0.00000
     21      16.8368      0.00000
     22      16.8369      0.00000
     23      18.7498      0.00000
     24      18.7499      0.00000
     25      22.4593      0.00000
     26      22.4595      0.00000
     27      25.0833      0.00000
     28      25.0834      0.00000
     29      28.6126      0.00000
     30      28.6127      0.00000
     31      31.6955      0.00000
     32      31.6956      0.00000

 k-point   250 :       0.1250   -0.1250    0.5000
  band No.  band energies     occupation 
      1      -8.6049      2.00000
      2      -8.6048      2.00000
      3      -5.8144      2.00000
      4      -5.8144      2.00000
      5      -5.7345      2.00000
      6      -5.7345      2.00000
      7      -5.6063      2.00000
      8      -5.6063      2.00000
      9      -5.4589      2.00000
     10      -5.4588      2.00000
     11      -5.1800      2.00000
     12      -5.1799      2.00000
     13       4.0826      2.00000
     14       4.0827      2.00000
     15       5.5416      2.00000
     16       5.5418      2.00000
     17       7.0939      2.00000
     18       7.0939      2.00000
     19      13.7563      0.00000
     20      13.7564      0.00000
     21      16.5070      0.00000
     22      16.5071      0.00000
     23      19.3401      0.00000
     24      19.3402      0.00000
     25      20.8053      0.00000
     26      20.8056      0.00000
     27      24.9394      0.00000
     28      24.9395      0.00000
     29      28.5559      0.00000
     30      28.5561      0.00000
     31      32.5125      0.00000
     32      32.5126      0.00000

 k-point   251 :       0.2500   -0.1250    0.5000
  band No.  band energies     occupation 
      1      -8.2524      2.00000
      2      -8.2524      2.00000
      3      -5.8358      2.00000
      4      -5.8358      2.00000
      5      -5.7425      2.00000
      6      -5.7425      2.00000
      7      -5.6118      2.00000
      8      -5.6117      2.00000
      9      -5.4350      2.00000
     10      -5.4350      2.00000
     11      -4.9825      2.00000
     12      -4.9825      2.00000
     13       2.9742      2.00000
     14       2.9742      2.00000
     15       5.5169      2.00000
     16       5.5169      2.00000
     17       7.0218      2.00000
     18       7.0219      2.00000
     19      14.3401      0.00000
     20      14.3401      0.00000
     21      15.6308      0.00000
     22      15.6310      0.00000
     23      19.3004      0.00000
     24      19.3005      0.00000
     25      20.5565      0.00000
     26      20.5566      0.00000
     27      25.8897      0.00000
     28      25.8898      0.00000
     29      28.0054      0.00000
     30      28.0056      0.00000
     31      31.8242      0.00000
     32      31.8246      0.00000

 k-point   252 :       0.3750   -0.1250    0.5000
  band No.  band energies     occupation 
      1      -7.8053      2.00000
      2      -7.8053      2.00000
      3      -5.8649      2.00000
      4      -5.8649      2.00000
      5      -5.8048      2.00000
      6      -5.8048      2.00000
      7      -5.5486      2.00000
      8      -5.5486      2.00000
      9      -5.3722      2.00000
     10      -5.3721      2.00000
     11      -4.6680      2.00000
     12      -4.6679      2.00000
     13       1.1275      2.00000
     14       1.1276      2.00000
     15       6.0156      2.00000
     16       6.0156      2.00000
     17       7.0450      2.00000
     18       7.0450      2.00000
     19      13.9447      0.00000
     20      13.9449      0.00000
     21      15.7989      0.00000
     22      15.7990      0.00000
     23      18.7296      0.00000
     24      18.7299      0.00000
     25      20.8418      0.00000
     26      20.8418      0.00000
     27      26.6202      0.00000
     28      26.6205      0.00000
     29      28.8131      0.00000
     30      28.8132      0.00000
     31      30.9592      0.00000
     32      30.9596      0.00000

 k-point   253 :       0.5000   -0.1250    0.5000
  band No.  band energies     occupation 
      1      -7.5322      2.00000
      2      -7.5322      2.00000
      3      -5.8633      2.00000
      4      -5.8633      2.00000
      5      -5.7990      2.00000
      6      -5.7990      2.00000
      7      -5.5350      2.00000
      8      -5.5350      2.00000
      9      -5.3373      2.00000
     10      -5.3373      2.00000
     11      -4.4395      2.00000
     12      -4.4395      2.00000
     13       0.0472      2.00000
     14       0.0473      2.00000
     15       6.1711      2.00000
     16       6.1712      2.00000
     17       6.9677      2.00000
     18       6.9677      2.00000
     19      13.6579      0.00000
     20      13.6581      0.00000
     21      16.4936      0.00000
     22      16.4937      0.00000
     23      18.4919      0.00000
     24      18.4921      0.00000
     25      21.3305      0.00000
     26      21.3306      0.00000
     27      25.7733      0.00000
     28      25.7735      0.00000
     29      29.2488      0.00000
     30      29.2490      0.00000
     31      31.8263      0.00000
     32      31.8265      0.00000

 k-point   254 :      -0.3750   -0.1250    0.5000
  band No.  band energies     occupation 
      1      -7.5884      2.00000
      2      -7.5884      2.00000
      3      -5.8562      2.00000
      4      -5.8562      2.00000
      5      -5.7332      2.00000
      6      -5.7331      2.00000
      7      -5.5397      2.00000
      8      -5.5397      2.00000
      9      -5.3981      2.00000
     10      -5.3980      2.00000
     11      -4.7094      2.00000
     12      -4.7093      2.00000
     13       0.5111      2.00000
     14       0.5112      2.00000
     15       5.8571      2.00000
     16       5.8572      2.00000
     17       6.8619      2.00000
     18       6.8619      2.00000
     19      14.0576      0.00000
     20      14.0578      0.00000
     21      16.9210      0.00000
     22      16.9212      0.00000
     23      18.4419      0.00000
     24      18.4421      0.00000
     25      22.4098      0.00000
     26      22.4099      0.00000
     27      25.0990      0.00000
     28      25.0991      0.00000
     29      29.2256      0.00000
     30      29.2258      0.00000
     31      31.0254      0.00000
     32      31.0256      0.00000

 k-point   255 :      -0.2500   -0.1250    0.5000
  band No.  band energies     occupation 
      1      -7.9631      2.00000
      2      -7.9630      2.00000
      3      -5.8426      2.00000
      4      -5.8426      2.00000
      5      -5.7104      2.00000
      6      -5.7103      2.00000
      7      -5.5482      2.00000
      8      -5.5482      2.00000
      9      -5.4914      2.00000
     10      -5.4914      2.00000
     11      -5.0476      2.00000
     12      -5.0475      2.00000
     13       1.9176      2.00000
     14       1.9177      2.00000
     15       5.7845      2.00000
     16       5.7845      2.00000
     17       6.5296      2.00000
     18       6.5297      2.00000
     19      14.9048      0.00000
     20      14.9049      0.00000
     21      16.6539      0.00000
     22      16.6540      0.00000
     23      18.1558      0.00000
     24      18.1559      0.00000
     25      23.8153      0.00000
     26      23.8154      0.00000
     27      25.5506      0.00000
     28      25.5506      0.00000
     29      28.5010      0.00000
     30      28.5011      0.00000
     31      29.9083      0.00000
     32      29.9084      0.00000

 k-point   256 :      -0.1250   -0.1250    0.5000
  band No.  band energies     occupation 
      1      -8.4207      2.00000
      2      -8.4207      2.00000
      3      -5.8658      2.00000
      4      -5.8657      2.00000
      5      -5.7185      2.00000
      6      -5.7185      2.00000
      7      -5.5559      2.00000
      8      -5.5559      2.00000
      9      -5.4641      2.00000
     10      -5.4641      2.00000
     11      -5.2203      2.00000
     12      -5.2203      2.00000
     13       3.1357      2.00000
     14       3.1357      2.00000
     15       6.0275      2.00000
     16       6.0275      2.00000
     17       6.6347      2.00000
     18       6.6348      2.00000
     19      14.5336      0.00000
     20      14.5336      0.00000
     21      16.6217      0.00000
     22      16.6218      0.00000
     23      18.1734      0.00000
     24      18.1735      0.00000
     25      24.1841      0.00000
     26      24.1841      0.00000
     27      25.6068      0.00000
     28      25.6070      0.00000
     29      28.0047      0.00000
     30      28.0047      0.00000
     31      30.8942      0.00000
     32      30.8943      0.00000

 k-point   257 :       0.0000   -0.0000   -0.3333
  band No.  band energies     occupation 
      1      -9.2988      2.00000
      2      -8.4712      2.00000
      3      -5.8992      2.00000
      4      -5.8371      2.00000
      5      -5.8264      2.00000
      6      -5.6060      2.00000
      7      -5.5307      2.00000
      8      -5.5273      2.00000
      9      -5.5032      2.00000
     10      -5.3805      2.00000
     11      -5.3769      2.00000
     12      -4.9751      2.00000
     13       2.3868      2.00000
     14       5.5812      2.00000
     15       5.8582      2.00000
     16       6.5866      2.00000
     17       7.3244      2.00000
     18       7.9919      2.00000
     19      12.0579      0.00000
     20      12.6391      0.00000
     21      17.6519      0.00000
     22      18.0735      0.00000
     23      18.1330      0.00000
     24      19.9860      0.00000
     25      22.1134      0.00000
     26      22.3321      0.00000
     27      23.6264      0.00000
     28      26.2083      0.00000
     29      28.6254      0.00000
     30      28.9882      0.00000
     31      29.2014      0.00000
     32      31.5583      0.00000

 k-point   258 :       0.1250   -0.0000   -0.3333
  band No.  band energies     occupation 
      1      -9.0940      2.00000
      2      -8.3264      2.00000
      3      -5.8994      2.00000
      4      -5.8424      2.00000
      5      -5.7975      2.00000
      6      -5.6136      2.00000
      7      -5.5658      2.00000
      8      -5.5393      2.00000
      9      -5.4944      2.00000
     10      -5.4138      2.00000
     11      -5.3776      2.00000
     12      -4.8535      2.00000
     13       2.3696      2.00000
     14       4.9206      2.00000
     15       5.0197      2.00000
     16       6.7669      2.00000
     17       7.1038      2.00000
     18       7.7860      2.00000
     19      12.9639      0.00000
     20      13.1853      0.00000
     21      17.2892      0.00000
     22      17.6059      0.00000
     23      18.3534      0.00000
     24      19.3940      0.00000
     25      22.4267      0.00000
     26      22.6639      0.00000
     27      24.0017      0.00000
     28      26.0170      0.00000
     29      26.8079      0.00000
     30      30.0367      0.00000
     31      30.6564      0.00000
     32      32.0314      0.00000

 k-point   259 :       0.2500    0.0000   -0.3333
  band No.  band energies     occupation 
      1      -8.5429      2.00000
      2      -7.9660      2.00000
      3      -5.9115      2.00000
      4      -5.8535      2.00000
      5      -5.7631      2.00000
      6      -5.6617      2.00000
      7      -5.5817      2.00000
      8      -5.5439      2.00000
      9      -5.4666      2.00000
     10      -5.3948      2.00000
     11      -5.3580      2.00000
     12      -4.6227      2.00000
     13       1.6535      2.00000
     14       3.0908      2.00000
     15       4.3231      2.00000
     16       6.8620      2.00000
     17       7.1751      2.00000
     18       7.7762      2.00000
     19      13.5423      0.00000
     20      14.4796      0.00000
     21      16.2159      0.00000
     22      17.1889      0.00000
     23      18.4321      0.00000
     24      18.9716      0.00000
     25      22.2872      0.00000
     26      22.8088      0.00000
     27      24.5456      0.00000
     28      26.6696      0.00000
     29      27.1623      0.00000
     30      29.0666      0.00000
     31      30.4881      0.00000
     32      32.2843      0.00000

 k-point   260 :       0.3750   -0.0000   -0.3333
  band No.  band energies     occupation 
      1      -7.8918      2.00000
      2      -7.6068      2.00000
      3      -5.9011      2.00000
      4      -5.8512      2.00000
      5      -5.7708      2.00000
      6      -5.7367      2.00000
      7      -5.5442      2.00000
      8      -5.5068      2.00000
      9      -5.3882      2.00000
     10      -5.3770      2.00000
     11      -5.1723      2.00000
     12      -4.4556      2.00000
     13       0.2920      2.00000
     14       1.2310      2.00000
     15       4.8435      2.00000
     16       6.6183      2.00000
     17       7.3806      2.00000
     18       7.9182      2.00000
     19      13.3078      0.00000
     20      14.4475      0.00000
     21      16.4702      0.00000
     22      17.6727      0.00000
     23      17.9573      0.00000
     24      18.6202      0.00000
     25      22.1974      0.00000
     26      22.5097      0.00000
     27      24.0083      0.00000
     28      26.5034      0.00000
     29      28.5425      0.00000
     30      29.5357      0.00000
     31      30.5991      0.00000
     32      31.4044      0.00000

 k-point   261 :       0.5000   -0.0000   -0.3333
  band No.  band energies     occupation 
      1      -7.5772      2.00000
      2      -7.4851      2.00000
      3      -5.8928      2.00000
      4      -5.8514      2.00000
      5      -5.7550      2.00000
      6      -5.7494      2.00000
      7      -5.5328      2.00000
      8      -5.5070      2.00000
      9      -5.3681      2.00000
     10      -5.3439      2.00000
     11      -4.7546      2.00000
     12      -4.6497      2.00000
     13      -0.1251      2.00000
     14       0.2161      2.00000
     15       5.5242      2.00000
     16       6.1038      2.00000
     17       7.5061      2.00000
     18       7.9655      2.00000
     19      13.4289      0.00000
     20      13.7188      0.00000
     21      17.3761      0.00000
     22      17.4114      0.00000
     23      18.1637      0.00000
     24      18.3667      0.00000
     25      21.9661      0.00000
     26      22.4490      0.00000
     27      24.0269      0.00000
     28      25.0943      0.00000
     29      29.0370      0.00000
     30      30.4852      0.00000
     31      31.0461      0.00000
     32      31.8270      0.00000

 k-point   262 :      -0.3750    0.0000   -0.3333
  band No.  band energies     occupation 
      1      -7.8918      2.00000
      2      -7.6068      2.00000
      3      -5.9011      2.00000
      4      -5.8511      2.00000
      5      -5.7708      2.00000
      6      -5.7367      2.00000
      7      -5.5443      2.00000
      8      -5.5068      2.00000
      9      -5.3882      2.00000
     10      -5.3770      2.00000
     11      -5.1722      2.00000
     12      -4.4557      2.00000
     13       0.2919      2.00000
     14       1.2310      2.00000
     15       4.8435      2.00000
     16       6.6183      2.00000
     17       7.3807      2.00000
     18       7.9182      2.00000
     19      13.3076      0.00000
     20      14.4477      0.00000
     21      16.4703      0.00000
     22      17.6726      0.00000
     23      17.9572      0.00000
     24      18.6202      0.00000
     25      22.1975      0.00000
     26      22.5096      0.00000
     27      24.0084      0.00000
     28      26.5033      0.00000
     29      28.5426      0.00000
     30      29.5357      0.00000
     31      30.5990      0.00000
     32      31.4041      0.00000

 k-point   263 :      -0.2500   -0.0000   -0.3333
  band No.  band energies     occupation 
      1      -8.5429      2.00000
      2      -7.9660      2.00000
      3      -5.9115      2.00000
      4      -5.8535      2.00000
      5      -5.7631      2.00000
      6      -5.6617      2.00000
      7      -5.5818      2.00000
      8      -5.5439      2.00000
      9      -5.4666      2.00000
     10      -5.3948      2.00000
     11      -5.3580      2.00000
     12      -4.6227      2.00000
     13       1.6534      2.00000
     14       3.0909      2.00000
     15       4.3231      2.00000
     16       6.8620      2.00000
     17       7.1751      2.00000
     18       7.7762      2.00000
     19      13.5422      0.00000
     20      14.4797      0.00000
     21      16.2161      0.00000
     22      17.1889      0.00000
     23      18.4320      0.00000
     24      18.9715      0.00000
     25      22.2872      0.00000
     26      22.8089      0.00000
     27      24.5457      0.00000
     28      26.6696      0.00000
     29      27.1623      0.00000
     30      29.0666      0.00000
     31      30.4881      0.00000
     32      32.2839      0.00000

 k-point   264 :      -0.1250    0.0000   -0.3333
  band No.  band energies     occupation 
      1      -9.0939      2.00000
      2      -8.3264      2.00000
      3      -5.8994      2.00000
      4      -5.8424      2.00000
      5      -5.7975      2.00000
      6      -5.6136      2.00000
      7      -5.5658      2.00000
      8      -5.5393      2.00000
      9      -5.4944      2.00000
     10      -5.4138      2.00000
     11      -5.3776      2.00000
     12      -4.8535      2.00000
     13       2.3696      2.00000
     14       4.9206      2.00000
     15       5.0197      2.00000
     16       6.7669      2.00000
     17       7.1038      2.00000
     18       7.7860      2.00000
     19      12.9639      0.00000
     20      13.1853      0.00000
     21      17.2891      0.00000
     22      17.6059      0.00000
     23      18.3534      0.00000
     24      19.3940      0.00000
     25      22.4268      0.00000
     26      22.6638      0.00000
     27      24.0016      0.00000
     28      26.0171      0.00000
     29      26.8080      0.00000
     30      30.0367      0.00000
     31      30.6564      0.00000
     32      32.0314      0.00000

 k-point   265 :       0.0000    0.1250   -0.3333
  band No.  band energies     occupation 
      1      -9.0939      2.00000
      2      -8.3264      2.00000
      3      -5.8994      2.00000
      4      -5.8424      2.00000
      5      -5.7975      2.00000
      6      -5.6136      2.00000
      7      -5.5658      2.00000
      8      -5.5393      2.00000
      9      -5.4944      2.00000
     10      -5.4138      2.00000
     11      -5.3776      2.00000
     12      -4.8535      2.00000
     13       2.3696      2.00000
     14       4.9206      2.00000
     15       5.0197      2.00000
     16       6.7669      2.00000
     17       7.1038      2.00000
     18       7.7860      2.00000
     19      12.9639      0.00000
     20      13.1853      0.00000
     21      17.2891      0.00000
     22      17.6059      0.00000
     23      18.3534      0.00000
     24      19.3940      0.00000
     25      22.4268      0.00000
     26      22.6638      0.00000
     27      24.0016      0.00000
     28      26.0171      0.00000
     29      26.8080      0.00000
     30      30.0367      0.00000
     31      30.6564      0.00000
     32      32.0314      0.00000

 k-point   266 :       0.1250    0.1250   -0.3333
  band No.  band energies     occupation 
      1      -8.8033      2.00000
      2      -8.1229      2.00000
      3      -5.8906      2.00000
      4      -5.8344      2.00000
      5      -5.7967      2.00000
      6      -5.6100      2.00000
      7      -5.5606      2.00000
      8      -5.5590      2.00000
      9      -5.4754      2.00000
     10      -5.4471      2.00000
     11      -5.4041      2.00000
     12      -4.7605      2.00000
     13       2.1542      2.00000
     14       4.0653      2.00000
     15       4.7791      2.00000
     16       6.1104      2.00000
     17       7.1282      2.00000
     18       7.1393      2.00000
     19      13.8620      0.00000
     20      14.3339      0.00000
     21      17.3227      0.00000
     22      17.3781      0.00000
     23      18.0490      0.00000
     24      18.4651      0.00000
     25      23.7685      0.00000
     26      24.0491      0.00000
     27      25.3477      0.00000
     28      25.4503      0.00000
     29      27.2443      0.00000
     30      29.3970      0.00000
     31      30.0564      0.00000
     32      31.2006      0.00000

 k-point   267 :       0.2500    0.1250   -0.3333
  band No.  band energies     occupation 
      1      -8.2409      2.00000
      2      -7.7847      2.00000
      3      -5.8526      2.00000
      4      -5.8154      2.00000
      5      -5.7406      2.00000
      6      -5.6560      2.00000
      7      -5.5785      2.00000
      8      -5.5422      2.00000
      9      -5.5214      2.00000
     10      -5.4452      2.00000
     11      -5.3146      2.00000
     12      -4.5395      2.00000
     13       1.4041      2.00000
     14       2.6477      2.00000
     15       4.5762      2.00000
     16       5.7350      2.00000
     17       6.5483      2.00000
     18       7.1535      2.00000
     19      14.2249      0.00000
     20      15.7881      0.00000
     21      16.3581      0.00000
     22      17.5229      0.00000
     23      17.8736      0.00000
     24      18.5396      0.00000
     25      23.2209      0.00000
     26      23.8736      0.00000
     27      24.1048      0.00000
     28      27.3878      0.00000
     29      28.1890      0.00000
     30      28.7807      0.00000
     31      29.1247      0.00000
     32      31.1900      0.00000

 k-point   268 :       0.3750    0.1250   -0.3333
  band No.  band energies     occupation 
      1      -7.7210      2.00000
      2      -7.5418      2.00000
      3      -5.8668      2.00000
      4      -5.8071      2.00000
      5      -5.7376      2.00000
      6      -5.7104      2.00000
      7      -5.5985      2.00000
      8      -5.4920      2.00000
      9      -5.4360      2.00000
     10      -5.3765      2.00000
     11      -4.9852      2.00000
     12      -4.3210      2.00000
     13       0.3251      2.00000
     14       1.0793      2.00000
     15       4.9209      2.00000
     16       6.1624      2.00000
     17       6.4114      2.00000
     18       6.9871      2.00000
     19      13.9397      0.00000
     20      15.0352      0.00000
     21      16.5281      0.00000
     22      17.4936      0.00000
     23      18.0476      0.00000
     24      18.8315      0.00000
     25      21.3454      0.00000
     26      23.0775      0.00000
     27      24.2641      0.00000
     28      26.5891      0.00000
     29      28.5709      0.00000
     30      29.8232      0.00000
     31      30.7919      0.00000
     32      31.3267      0.00000

 k-point   269 :       0.5000    0.1250   -0.3333
  band No.  band energies     occupation 
      1      -7.6165      2.00000
      2      -7.5262      2.00000
      3      -5.8749      2.00000
      4      -5.8195      2.00000
      5      -5.7953      2.00000
      6      -5.7716      2.00000
      7      -5.5896      2.00000
      8      -5.4808      2.00000
      9      -5.3895      2.00000
     10      -5.3289      2.00000
     11      -4.5341      2.00000
     12      -4.3073      2.00000
     13       0.0711      2.00000
     14       0.4779      2.00000
     15       5.4304      2.00000
     16       5.9131      2.00000
     17       6.8050      2.00000
     18       7.1267      2.00000
     19      13.9511      0.00000
     20      14.1556      0.00000
     21      16.1801      0.00000
     22      16.8958      0.00000
     23      18.1712      0.00000
     24      18.7473      0.00000
     25      20.6078      0.00000
     26      22.3495      0.00000
     27      25.1535      0.00000
     28      26.1537      0.00000
     29      28.9158      0.00000
     30      29.9327      0.00000
     31      31.4445      0.00000
     32      32.1088      0.00000

 k-point   270 :      -0.3750    0.1250   -0.3333
  band No.  band energies     occupation 
      1      -8.0055      2.00000
      2      -7.6974      2.00000
      3      -5.8836      2.00000
      4      -5.8343      2.00000
      5      -5.8079      2.00000
      6      -5.7495      2.00000
      7      -5.5993      2.00000
      8      -5.4972      2.00000
      9      -5.4106      2.00000
     10      -5.3619      2.00000
     11      -4.9678      2.00000
     12      -4.1780      2.00000
     13       0.7487      2.00000
     14       1.7809      2.00000
     15       4.6982      2.00000
     16       6.4283      2.00000
     17       6.9878      2.00000
     18       7.2754      2.00000
     19      13.8090      0.00000
     20      14.5516      0.00000
     21      15.2349      0.00000
     22      16.4078      0.00000
     23      18.3841      0.00000
     24      18.8628      0.00000
     25      21.0737      0.00000
     26      21.2580      0.00000
     27      25.9479      0.00000
     28      26.5079      0.00000
     29      27.9824      0.00000
     30      29.6068      0.00000
     31      31.3152      0.00000
     32      31.8548      0.00000

 k-point   271 :      -0.2500    0.1250   -0.3333
  band No.  band energies     occupation 
      1      -8.5789      2.00000
      2      -8.0168      2.00000
      3      -5.8684      2.00000
      4      -5.8062      2.00000
      5      -5.7535      2.00000
      6      -5.6885      2.00000
      7      -5.6347      2.00000
      8      -5.5696      2.00000
      9      -5.4941      2.00000
     10      -5.3848      2.00000
     11      -5.2410      2.00000
     12      -4.4652      2.00000
     13       2.2087      2.00000
     14       3.7532      2.00000
     15       4.2763      2.00000
     16       6.4073      2.00000
     17       6.6689      2.00000
     18       7.4072      2.00000
     19      13.8024      0.00000
     20      14.3015      0.00000
     21      15.6905      0.00000
     22      16.6461      0.00000
     23      18.9558      0.00000
     24      19.4461      0.00000
     25      20.3243      0.00000
     26      21.0782      0.00000
     27      25.0226      0.00000
     28      26.6904      0.00000
     29      27.1454      0.00000
     30      28.2491      0.00000
     31      31.6303      0.00000
     32      32.4970      0.00000

 k-point   272 :      -0.1250    0.1250   -0.3333
  band No.  band energies     occupation 
      1      -9.0059      2.00000
      2      -8.2797      2.00000
      3      -5.8444      2.00000
      4      -5.8208      2.00000
      5      -5.7779      2.00000
      6      -5.6617      2.00000
      7      -5.5932      2.00000
      8      -5.5648      2.00000
      9      -5.5376      2.00000
     10      -5.3822      2.00000
     11      -5.3459      2.00000
     12      -4.7393      2.00000
     13       2.5521      2.00000
     14       5.0101      2.00000
     15       5.3958      2.00000
     16       6.1158      2.00000
     17       6.5487      2.00000
     18       7.6256      2.00000
     19      13.2258      0.00000
     20      13.5393      0.00000
     21      16.9059      0.00000
     22      17.4557      0.00000
     23      18.7822      0.00000
     24      19.9160      0.00000
     25      20.6011      0.00000
     26      21.0730      0.00000
     27      23.6857      0.00000
     28      26.4956      0.00000
     29      26.9407      0.00000
     30      29.5768      0.00000
     31      30.5995      0.00000
     32      32.9396      0.00000

 k-point   273 :       0.0000    0.2500   -0.3333
  band No.  band energies     occupation 
      1      -8.5429      2.00000
      2      -7.9660      2.00000
      3      -5.9115      2.00000
      4      -5.8535      2.00000
      5      -5.7631      2.00000
      6      -5.6617      2.00000
      7      -5.5818      2.00000
      8      -5.5439      2.00000
      9      -5.4666      2.00000
     10      -5.3948      2.00000
     11      -5.3580      2.00000
     12      -4.6227      2.00000
     13       1.6534      2.00000
     14       3.0909      2.00000
     15       4.3231      2.00000
     16       6.8620      2.00000
     17       7.1751      2.00000
     18       7.7762      2.00000
     19      13.5422      0.00000
     20      14.4797      0.00000
     21      16.2161      0.00000
     22      17.1889      0.00000
     23      18.4320      0.00000
     24      18.9715      0.00000
     25      22.2872      0.00000
     26      22.8089      0.00000
     27      24.5457      0.00000
     28      26.6696      0.00000
     29      27.1623      0.00000
     30      29.0666      0.00000
     31      30.4881      0.00000
     32      32.2839      0.00000

 k-point   274 :       0.1250    0.2500   -0.3333
  band No.  band energies     occupation 
      1      -8.2409      2.00000
      2      -7.7847      2.00000
      3      -5.8526      2.00000
      4      -5.8154      2.00000
      5      -5.7406      2.00000
      6      -5.6560      2.00000
      7      -5.5785      2.00000
      8      -5.5422      2.00000
      9      -5.5214      2.00000
     10      -5.4452      2.00000
     11      -5.3146      2.00000
     12      -4.5395      2.00000
     13       1.4041      2.00000
     14       2.6478      2.00000
     15       4.5762      2.00000
     16       5.7350      2.00000
     17       6.5483      2.00000
     18       7.1535      2.00000
     19      14.2248      0.00000
     20      15.7882      0.00000
     21      16.3582      0.00000
     22      17.5228      0.00000
     23      17.8737      0.00000
     24      18.5395      0.00000
     25      23.2209      0.00000
     26      23.8736      0.00000
     27      24.1048      0.00000
     28      27.3878      0.00000
     29      28.1891      0.00000
     30      28.7808      0.00000
     31      29.1248      0.00000
     32      31.1897      0.00000

 k-point   275 :       0.2500    0.2500   -0.3333
  band No.  band energies     occupation 
      1      -7.8458      2.00000
      2      -7.6054      2.00000
      3      -5.8305      2.00000
      4      -5.7902      2.00000
      5      -5.6831      2.00000
      6      -5.6186      2.00000
      7      -5.5917      2.00000
      8      -5.5894      2.00000
      9      -5.4892      2.00000
     10      -5.4686      2.00000
     11      -5.0277      2.00000
     12      -4.1951      2.00000
     13       1.2846      2.00000
     14       2.1685      2.00000
     15       3.8633      2.00000
     16       5.1768      2.00000
     17       5.4792      2.00000
     18       6.9180      2.00000
     19      15.0908      0.00000
     20      15.7782      0.00000
     21      16.4131      0.00000
     22      17.1949      0.00000
     23      17.3405      0.00000
     24      18.3382      0.00000
     25      22.8317      0.00000
     26      23.4218      0.00000
     27      23.6182      0.00000
     28      27.6631      0.00000
     29      28.5870      0.00000
     30      28.9767      0.00000
     31      31.1199      0.00000
     32      32.3347      0.00000

 k-point   276 :       0.3750    0.2500   -0.3333
  band No.  band energies     occupation 
      1      -7.6251      2.00000
      2      -7.5682      2.00000
      3      -5.8822      2.00000
      4      -5.8246      2.00000
      5      -5.7477      2.00000
      6      -5.6315      2.00000
      7      -5.5668      2.00000
      8      -5.5218      2.00000
      9      -5.4174      2.00000
     10      -5.3740      2.00000
     11      -4.3252      2.00000
     12      -3.8027      2.00000
     13       0.8435      2.00000
     14       1.2799      2.00000
     15       3.5142      2.00000
     16       4.8399      2.00000
     17       6.1310      2.00000
     18       6.5036      2.00000
     19      14.4921      0.00000
     20      14.8297      0.00000
     21      15.7222      0.00000
     22      16.6698      0.00000
     23      17.2056      0.00000
     24      18.6344      0.00000
     25      21.9400      0.00000
     26      23.0229      0.00000
     27      24.4081      0.00000
     28      27.1223      0.00000
     29      28.1795      0.00000
     30      29.6808      0.00000
     31      32.5981      0.00000
     32      33.1073      0.00000

 k-point   277 :       0.5000    0.2500   -0.3333
  band No.  band energies     occupation 
      1      -7.7198      2.00000
      2      -7.6242      2.00000
      3      -5.9023      2.00000
      4      -5.8601      2.00000
      5      -5.7423      2.00000
      6      -5.6426      2.00000
      7      -5.5862      2.00000
      8      -5.5198      2.00000
      9      -5.3621      2.00000
     10      -5.3192      2.00000
     11      -4.0081      2.00000
     12      -3.5902      2.00000
     13       0.6956      2.00000
     14       1.1867      2.00000
     15       4.1893      2.00000
     16       4.9904      2.00000
     17       5.8308      2.00000
     18       6.7239      2.00000
     19      13.0330      0.00000
     20      13.7830      0.00000
     21      15.2637      0.00000
     22      16.2481      0.00000
     23      18.2923      0.00000
     24      19.0299      0.00000
     25      21.2322      0.00000
     26      21.9765      0.00000
     27      24.7155      0.00000
     28      26.8138      0.00000
     29      28.5768      0.00000
     30      30.2435      0.00000
     31      31.6757      0.00000
     32      33.2419      0.00000

 k-point   278 :      -0.3750    0.2500   -0.3333
  band No.  band energies     occupation 
      1      -8.0123      2.00000
      2      -7.7579      2.00000
      3      -5.8697      2.00000
      4      -5.8364      2.00000
      5      -5.7419      2.00000
      6      -5.6442      2.00000
      7      -5.6163      2.00000
      8      -5.5364      2.00000
      9      -5.3907      2.00000
     10      -5.3461      2.00000
     11      -4.5970      2.00000
     12      -3.6853      2.00000
     13       1.6508      2.00000
     14       2.5608      2.00000
     15       4.2059      2.00000
     16       5.0714      2.00000
     17       5.7654      2.00000
     18       6.7853      2.00000
     19      12.3326      0.00000
     20      13.3944      0.00000
     21      15.4965      0.00000
     22      16.4244      0.00000
     23      18.6362      0.00000
     24      19.7656      0.00000
     25      20.7331      0.00000
     26      21.0815      0.00000
     27      24.6534      0.00000
     28      26.6551      0.00000
     29      28.1682      0.00000
     30      29.0960      0.00000
     31      30.9879      0.00000
     32      33.2660      0.00000

 k-point   279 :      -0.2500    0.2500   -0.3333
  band No.  band energies     occupation 
      1      -8.3562      2.00000
      2      -7.9217      2.00000
      3      -5.8096      2.00000
      4      -5.7808      2.00000
      5      -5.7707      2.00000
      6      -5.6427      2.00000
      7      -5.6388      2.00000
      8      -5.6033      2.00000
      9      -5.4803      2.00000
     10      -5.3774      2.00000
     11      -5.0359      2.00000
     12      -4.1252      2.00000
     13       2.7980      2.00000
     14       3.8146      2.00000
     15       4.1698      2.00000
     16       5.0988      2.00000
     17       5.7352      2.00000
     18       7.0363      2.00000
     19      12.9676      0.00000
     20      13.9260      0.00000
     21      15.6112      0.00000
     22      16.6954      0.00000
     23      18.7928      0.00000
     24      19.9835      0.00000
     25      20.2093      0.00000
     26      20.6289      0.00000
     27      25.4480      0.00000
     28      25.6825      0.00000
     29      27.5573      0.00000
     30      27.5981      0.00000
     31      31.6044      0.00000
     32      33.4221      0.00000

 k-point   280 :      -0.1250    0.2500   -0.3333
  band No.  band energies     occupation 
      1      -8.5789      2.00000
      2      -8.0168      2.00000
      3      -5.8684      2.00000
      4      -5.8062      2.00000
      5      -5.7535      2.00000
      6      -5.6885      2.00000
      7      -5.6347      2.00000
      8      -5.5696      2.00000
      9      -5.4941      2.00000
     10      -5.3848      2.00000
     11      -5.2410      2.00000
     12      -4.4652      2.00000
     13       2.2087      2.00000
     14       3.7532      2.00000
     15       4.2763      2.00000
     16       6.4073      2.00000
     17       6.6689      2.00000
     18       7.4072      2.00000
     19      13.8024      0.00000
     20      14.3015      0.00000
     21      15.6905      0.00000
     22      16.6461      0.00000
     23      18.9558      0.00000
     24      19.4461      0.00000
     25      20.3243      0.00000
     26      21.0782      0.00000
     27      25.0226      0.00000
     28      26.6904      0.00000
     29      27.1454      0.00000
     30      28.2491      0.00000
     31      31.6303      0.00000
     32      32.4970      0.00000

 k-point   281 :       0.0000    0.3750   -0.3333
  band No.  band energies     occupation 
      1      -7.8918      2.00000
      2      -7.6068      2.00000
      3      -5.9011      2.00000
      4      -5.8511      2.00000
      5      -5.7708      2.00000
      6      -5.7367      2.00000
      7      -5.5443      2.00000
      8      -5.5068      2.00000
      9      -5.3882      2.00000
     10      -5.3770      2.00000
     11      -5.1722      2.00000
     12      -4.4557      2.00000
     13       0.2919      2.00000
     14       1.2310      2.00000
     15       4.8435      2.00000
     16       6.6183      2.00000
     17       7.3807      2.00000
     18       7.9182      2.00000
     19      13.3076      0.00000
     20      14.4477      0.00000
     21      16.4703      0.00000
     22      17.6726      0.00000
     23      17.9572      0.00000
     24      18.6202      0.00000
     25      22.1975      0.00000
     26      22.5096      0.00000
     27      24.0084      0.00000
     28      26.5033      0.00000
     29      28.5426      0.00000
     30      29.5357      0.00000
     31      30.5990      0.00000
     32      31.4041      0.00000

 k-point   282 :       0.1250    0.3750   -0.3333
  band No.  band energies     occupation 
      1      -7.7210      2.00000
      2      -7.5418      2.00000
      3      -5.8668      2.00000
      4      -5.8071      2.00000
      5      -5.7377      2.00000
      6      -5.7104      2.00000
      7      -5.5985      2.00000
      8      -5.4920      2.00000
      9      -5.4360      2.00000
     10      -5.3765      2.00000
     11      -4.9852      2.00000
     12      -4.3210      2.00000
     13       0.3250      2.00000
     14       1.0793      2.00000
     15       4.9209      2.00000
     16       6.1624      2.00000
     17       6.4113      2.00000
     18       6.9872      2.00000
     19      13.9396      0.00000
     20      15.0354      0.00000
     21      16.5282      0.00000
     22      17.4936      0.00000
     23      18.0476      0.00000
     24      18.8314      0.00000
     25      21.3453      0.00000
     26      23.0776      0.00000
     27      24.2643      0.00000
     28      26.5892      0.00000
     29      28.5710      0.00000
     30      29.8230      0.00000
     31      30.7920      0.00000
     32      31.3265      0.00000

 k-point   283 :       0.2500    0.3750   -0.3333
  band No.  band energies     occupation 
      1      -7.6251      2.00000
      2      -7.5682      2.00000
      3      -5.8822      2.00000
      4      -5.8246      2.00000
      5      -5.7477      2.00000
      6      -5.6315      2.00000
      7      -5.5668      2.00000
      8      -5.5218      2.00000
      9      -5.4174      2.00000
     10      -5.3740      2.00000
     11      -4.3252      2.00000
     12      -3.8027      2.00000
     13       0.8435      2.00000
     14       1.2799      2.00000
     15       3.5142      2.00000
     16       4.8398      2.00000
     17       6.1310      2.00000
     18       6.5036      2.00000
     19      14.4920      0.00000
     20      14.8298      0.00000
     21      15.7222      0.00000
     22      16.6699      0.00000
     23      17.2058      0.00000
     24      18.6343      0.00000
     25      21.9398      0.00000
     26      23.0230      0.00000
     27      24.4083      0.00000
     28      27.1223      0.00000
     29      28.1793      0.00000
     30      29.6808      0.00000
     31      32.5981      0.00000
     32      33.1073      0.00000

 k-point   284 :       0.3750    0.3750   -0.3333
  band No.  band energies     occupation 
      1      -7.6833      2.00000
      2      -7.6502      2.00000
      3      -5.9007      2.00000
      4      -5.8131      2.00000
      5      -5.8120      2.00000
      6      -5.5687      2.00000
      7      -5.5597      2.00000
      8      -5.4802      2.00000
      9      -5.3400      2.00000
     10      -5.3244      2.00000
     11      -3.4251      2.00000
     12      -3.2739      2.00000
     13       1.5160      2.00000
     14       1.8106      2.00000
     15       2.0551      2.00000
     16       3.6282      2.00000
     17       5.9972      2.00000
     18       6.5432      2.00000
     19      12.9385      0.00000
     20      13.0491      0.00000
     21      15.6694      0.00000
     22      16.6403      0.00000
     23      17.2928      0.00000
     24      18.6472      0.00000
     25      22.1152      0.00000
     26      22.4968      0.00000
     27      24.7339      0.00000
     28      27.5294      0.00000
     29      27.7546      0.00000
     30      30.3654      0.00000
     31      32.3273      0.00000
     32      33.3335      0.00000

 k-point   285 :       0.5000    0.3750   -0.3333
  band No.  band energies     occupation 
      1      -7.8225      2.00000
      2      -7.7213      2.00000
      3      -5.8956      2.00000
      4      -5.8336      2.00000
      5      -5.7712      2.00000
      6      -5.5940      2.00000
      7      -5.5514      2.00000
      8      -5.4976      2.00000
      9      -5.2750      2.00000
     10      -5.2664      2.00000
     11      -3.3594      2.00000
     12      -2.8564      2.00000
     13       1.6189      2.00000
     14       1.7782      2.00000
     15       3.0507      2.00000
     16       3.6669      2.00000
     17       5.3108      2.00000
     18       6.4035      2.00000
     19      11.3507      0.00000
     20      12.0790      0.00000
     21      15.6369      0.00000
     22      16.7369      0.00000
     23      18.1664      0.00000
     24      19.3265      0.00000
     25      20.6288      0.00000
     26      21.7918      0.00000
     27      24.8921      0.00000
     28      27.4466      0.00000
     29      28.6107      0.00000
     30      30.3704      0.00000
     31      31.6464      0.00000
     32      33.3467      0.00000

 k-point   286 :      -0.3750    0.3750   -0.3333
  band No.  band energies     occupation 
      1      -7.9405      2.00000
      2      -7.7660      2.00000
      3      -5.8792      2.00000
      4      -5.7903      2.00000
      5      -5.7898      2.00000
      6      -5.6144      2.00000
      7      -5.5486      2.00000
      8      -5.5286      2.00000
      9      -5.3147      2.00000
     10      -5.2884      2.00000
     11      -4.0069      2.00000
     12      -3.1157      2.00000
     13       2.4234      2.00000
     14       2.7702      2.00000
     15       2.8715      2.00000
     16       4.1903      2.00000
     17       5.2883      2.00000
     18       6.2588      2.00000
     19      11.0414      0.00000
     20      12.1862      0.00000
     21      16.0277      0.00000
     22      16.8470      0.00000
     23      17.8979      0.00000
     24      20.2869      0.00000
     25      20.6598      0.00000
     26      21.0671      0.00000
     27      24.3765      0.00000
     28      27.6593      0.00000
     29      27.9021      0.00000
     30      29.5269      0.00000
     31      31.0514      0.00000
     32      33.4495      0.00000

 k-point   287 :      -0.2500    0.3750   -0.3333
  band No.  band energies     occupation 
      1      -8.0123      2.00000
      2      -7.7579      2.00000
      3      -5.8697      2.00000
      4      -5.8364      2.00000
      5      -5.7419      2.00000
      6      -5.6442      2.00000
      7      -5.6163      2.00000
      8      -5.5364      2.00000
      9      -5.3907      2.00000
     10      -5.3461      2.00000
     11      -4.5970      2.00000
     12      -3.6853      2.00000
     13       1.6508      2.00000
     14       2.5608      2.00000
     15       4.2059      2.00000
     16       5.0714      2.00000
     17       5.7654      2.00000
     18       6.7853      2.00000
     19      12.3326      0.00000
     20      13.3944      0.00000
     21      15.4965      0.00000
     22      16.4244      0.00000
     23      18.6362      0.00000
     24      19.7656      0.00000
     25      20.7331      0.00000
     26      21.0815      0.00000
     27      24.6534      0.00000
     28      26.6551      0.00000
     29      28.1682      0.00000
     30      29.0960      0.00000
     31      30.9879      0.00000
     32      33.2660      0.00000

 k-point   288 :      -0.1250    0.3750   -0.3333
  band No.  band energies     occupation 
      1      -8.0055      2.00000
      2      -7.6974      2.00000
      3      -5.8836      2.00000
      4      -5.8343      2.00000
      5      -5.8079      2.00000
      6      -5.7495      2.00000
      7      -5.5993      2.00000
      8      -5.4972      2.00000
      9      -5.4106      2.00000
     10      -5.3619      2.00000
     11      -4.9678      2.00000
     12      -4.1780      2.00000
     13       0.7487      2.00000
     14       1.7809      2.00000
     15       4.6982      2.00000
     16       6.4283      2.00000
     17       6.9878      2.00000
     18       7.2754      2.00000
     19      13.8090      0.00000
     20      14.5516      0.00000
     21      15.2349      0.00000
     22      16.4078      0.00000
     23      18.3841      0.00000
     24      18.8628      0.00000
     25      21.0737      0.00000
     26      21.2580      0.00000
     27      25.9479      0.00000
     28      26.5079      0.00000
     29      27.9824      0.00000
     30      29.6068      0.00000
     31      31.3152      0.00000
     32      31.8548      0.00000

 k-point   289 :       0.0000    0.5000   -0.3333
  band No.  band energies     occupation 
      1      -7.5772      2.00000
      2      -7.4851      2.00000
      3      -5.8928      2.00000
      4      -5.8514      2.00000
      5      -5.7550      2.00000
      6      -5.7494      2.00000
      7      -5.5328      2.00000
      8      -5.5070      2.00000
      9      -5.3681      2.00000
     10      -5.3439      2.00000
     11      -4.7546      2.00000
     12      -4.6497      2.00000
     13      -0.1251      2.00000
     14       0.2161      2.00000
     15       5.5242      2.00000
     16       6.1038      2.00000
     17       7.5061      2.00000
     18       7.9655      2.00000
     19      13.4289      0.00000
     20      13.7188      0.00000
     21      17.3761      0.00000
     22      17.4114      0.00000
     23      18.1637      0.00000
     24      18.3667      0.00000
     25      21.9661      0.00000
     26      22.4490      0.00000
     27      24.0269      0.00000
     28      25.0943      0.00000
     29      29.0370      0.00000
     30      30.4852      0.00000
     31      31.0461      0.00000
     32      31.8270      0.00000

 k-point   290 :       0.1250    0.5000   -0.3333
  band No.  band energies     occupation 
      1      -7.6165      2.00000
      2      -7.5262      2.00000
      3      -5.8749      2.00000
      4      -5.8195      2.00000
      5      -5.7953      2.00000
      6      -5.7716      2.00000
      7      -5.5896      2.00000
      8      -5.4808      2.00000
      9      -5.3895      2.00000
     10      -5.3289      2.00000
     11      -4.5342      2.00000
     12      -4.3073      2.00000
     13       0.0711      2.00000
     14       0.4778      2.00000
     15       5.4304      2.00000
     16       5.9131      2.00000
     17       6.8050      2.00000
     18       7.1267      2.00000
     19      13.9510      0.00000
     20      14.1558      0.00000
     21      16.1802      0.00000
     22      16.8958      0.00000
     23      18.1711      0.00000
     24      18.7472      0.00000
     25      20.6078      0.00000
     26      22.3496      0.00000
     27      25.1537      0.00000
     28      26.1537      0.00000
     29      28.9157      0.00000
     30      29.9326      0.00000
     31      31.4445      0.00000
     32      32.1084      0.00000

 k-point   291 :       0.2500    0.5000   -0.3333
  band No.  band energies     occupation 
      1      -7.7198      2.00000
      2      -7.6241      2.00000
      3      -5.9023      2.00000
      4      -5.8601      2.00000
      5      -5.7423      2.00000
      6      -5.6426      2.00000
      7      -5.5862      2.00000
      8      -5.5198      2.00000
      9      -5.3621      2.00000
     10      -5.3191      2.00000
     11      -4.0081      2.00000
     12      -3.5902      2.00000
     13       0.6957      2.00000
     14       1.1867      2.00000
     15       4.1894      2.00000
     16       4.9903      2.00000
     17       5.8307      2.00000
     18       6.7240      2.00000
     19      13.0329      0.00000
     20      13.7831      0.00000
     21      15.2638      0.00000
     22      16.2482      0.00000
     23      18.2923      0.00000
     24      19.0299      0.00000
     25      21.2320      0.00000
     26      21.9766      0.00000
     27      24.7158      0.00000
     28      26.8137      0.00000
     29      28.5767      0.00000
     30      30.2434      0.00000
     31      31.6754      0.00000
     32      33.2420      0.00000

 k-point   292 :       0.3750    0.5000   -0.3333
  band No.  band energies     occupation 
      1      -7.8225      2.00000
      2      -7.7213      2.00000
      3      -5.8956      2.00000
      4      -5.8336      2.00000
      5      -5.7712      2.00000
      6      -5.5940      2.00000
      7      -5.5514      2.00000
      8      -5.4977      2.00000
      9      -5.2751      2.00000
     10      -5.2664      2.00000
     11      -3.3594      2.00000
     12      -2.8564      2.00000
     13       1.6189      2.00000
     14       1.7782      2.00000
     15       3.0507      2.00000
     16       3.6669      2.00000
     17       5.3107      2.00000
     18       6.4035      2.00000
     19      11.3506      0.00000
     20      12.0790      0.00000
     21      15.6369      0.00000
     22      16.7371      0.00000
     23      18.1664      0.00000
     24      19.3265      0.00000
     25      20.6287      0.00000
     26      21.7917      0.00000
     27      24.8921      0.00000
     28      27.4465      0.00000
     29      28.6107      0.00000
     30      30.3704      0.00000
     31      31.6462      0.00000
     32      33.3468      0.00000

 k-point   293 :       0.5000    0.5000   -0.3333
  band No.  band energies     occupation 
      1      -7.8632      2.00000
      2      -7.7610      2.00000
      3      -5.8994      2.00000
      4      -5.8093      2.00000
      5      -5.7733      2.00000
      6      -5.6066      2.00000
      7      -5.5390      2.00000
      8      -5.4974      2.00000
      9      -5.2230      2.00000
     10      -5.2176      2.00000
     11      -2.9768      2.00000
     12      -2.5282      2.00000
     13       1.3396      2.00000
     14       2.3628      2.00000
     15       2.7590      2.00000
     16       3.8343      2.00000
     17       4.7666      2.00000
     18       5.8761      2.00000
     19      10.7676      0.00000
     20      11.5013      0.00000
     21      15.4063      0.00000
     22      17.5564      0.00000
     23      18.2103      0.00000
     24      19.2817      0.00000
     25      20.4684      0.00000
     26      20.7035      0.00000
     27      25.4241      0.00000
     28      27.7460      0.00000
     29      29.0228      0.00000
     30      30.5245      0.00000
     31      31.6936      0.00000
     32      33.4240      0.00000

 k-point   294 :      -0.3750    0.5000   -0.3333
  band No.  band energies     occupation 
      1      -7.8225      2.00000
      2      -7.7213      2.00000
      3      -5.8956      2.00000
      4      -5.8336      2.00000
      5      -5.7712      2.00000
      6      -5.5940      2.00000
      7      -5.5514      2.00000
      8      -5.4976      2.00000
      9      -5.2750      2.00000
     10      -5.2664      2.00000
     11      -3.3594      2.00000
     12      -2.8564      2.00000
     13       1.6189      2.00000
     14       1.7782      2.00000
     15       3.0507      2.00000
     16       3.6669      2.00000
     17       5.3108      2.00000
     18       6.4035      2.00000
     19      11.3507      0.00000
     20      12.0790      0.00000
     21      15.6369      0.00000
     22      16.7369      0.00000
     23      18.1664      0.00000
     24      19.3265      0.00000
     25      20.6288      0.00000
     26      21.7918      0.00000
     27      24.8921      0.00000
     28      27.4466      0.00000
     29      28.6107      0.00000
     30      30.3704      0.00000
     31      31.6464      0.00000
     32      33.3467      0.00000

 k-point   295 :      -0.2500    0.5000   -0.3333
  band No.  band energies     occupation 
      1      -7.7198      2.00000
      2      -7.6242      2.00000
      3      -5.9023      2.00000
      4      -5.8601      2.00000
      5      -5.7423      2.00000
      6      -5.6426      2.00000
      7      -5.5862      2.00000
      8      -5.5198      2.00000
      9      -5.3621      2.00000
     10      -5.3192      2.00000
     11      -4.0081      2.00000
     12      -3.5902      2.00000
     13       0.6956      2.00000
     14       1.1867      2.00000
     15       4.1893      2.00000
     16       4.9904      2.00000
     17       5.8308      2.00000
     18       6.7239      2.00000
     19      13.0330      0.00000
     20      13.7830      0.00000
     21      15.2637      0.00000
     22      16.2481      0.00000
     23      18.2923      0.00000
     24      19.0299      0.00000
     25      21.2322      0.00000
     26      21.9765      0.00000
     27      24.7155      0.00000
     28      26.8138      0.00000
     29      28.5768      0.00000
     30      30.2435      0.00000
     31      31.6757      0.00000
     32      33.2419      0.00000

 k-point   296 :      -0.1250    0.5000   -0.3333
  band No.  band energies     occupation 
      1      -7.6165      2.00000
      2      -7.5262      2.00000
      3      -5.8749      2.00000
      4      -5.8195      2.00000
      5      -5.7953      2.00000
      6      -5.7716      2.00000
      7      -5.5896      2.00000
      8      -5.4808      2.00000
      9      -5.3895      2.00000
     10      -5.3289      2.00000
     11      -4.5341      2.00000
     12      -4.3073      2.00000
     13       0.0711      2.00000
     14       0.4779      2.00000
     15       5.4304      2.00000
     16       5.9131      2.00000
     17       6.8050      2.00000
     18       7.1267      2.00000
     19      13.9511      0.00000
     20      14.1556      0.00000
     21      16.1801      0.00000
     22      16.8958      0.00000
     23      18.1712      0.00000
     24      18.7473      0.00000
     25      20.6078      0.00000
     26      22.3495      0.00000
     27      25.1535      0.00000
     28      26.1537      0.00000
     29      28.9158      0.00000
     30      29.9327      0.00000
     31      31.4445      0.00000
     32      32.1088      0.00000

 k-point   297 :       0.0000   -0.3750   -0.3333
  band No.  band energies     occupation 
      1      -7.8918      2.00000
      2      -7.6068      2.00000
      3      -5.9011      2.00000
      4      -5.8512      2.00000
      5      -5.7708      2.00000
      6      -5.7367      2.00000
      7      -5.5442      2.00000
      8      -5.5068      2.00000
      9      -5.3882      2.00000
     10      -5.3770      2.00000
     11      -5.1723      2.00000
     12      -4.4556      2.00000
     13       0.2920      2.00000
     14       1.2310      2.00000
     15       4.8435      2.00000
     16       6.6183      2.00000
     17       7.3806      2.00000
     18       7.9182      2.00000
     19      13.3078      0.00000
     20      14.4475      0.00000
     21      16.4702      0.00000
     22      17.6727      0.00000
     23      17.9573      0.00000
     24      18.6202      0.00000
     25      22.1974      0.00000
     26      22.5097      0.00000
     27      24.0083      0.00000
     28      26.5034      0.00000
     29      28.5425      0.00000
     30      29.5357      0.00000
     31      30.5991      0.00000
     32      31.4044      0.00000

 k-point   298 :       0.1250   -0.3750   -0.3333
  band No.  band energies     occupation 
      1      -8.0056      2.00000
      2      -7.6974      2.00000
      3      -5.8836      2.00000
      4      -5.8343      2.00000
      5      -5.8079      2.00000
      6      -5.7495      2.00000
      7      -5.5993      2.00000
      8      -5.4972      2.00000
      9      -5.4106      2.00000
     10      -5.3618      2.00000
     11      -4.9678      2.00000
     12      -4.1780      2.00000
     13       0.7488      2.00000
     14       1.7808      2.00000
     15       4.6981      2.00000
     16       6.4283      2.00000
     17       6.9877      2.00000
     18       7.2754      2.00000
     19      13.8090      0.00000
     20      14.5515      0.00000
     21      15.2349      0.00000
     22      16.4079      0.00000
     23      18.3841      0.00000
     24      18.8627      0.00000
     25      21.0736      0.00000
     26      21.2580      0.00000
     27      25.9481      0.00000
     28      26.5080      0.00000
     29      27.9824      0.00000
     30      29.6066      0.00000
     31      31.3153      0.00000
     32      31.8545      0.00000

 k-point   299 :       0.2500   -0.3750   -0.3333
  band No.  band energies     occupation 
      1      -8.0123      2.00000
      2      -7.7579      2.00000
      3      -5.8697      2.00000
      4      -5.8364      2.00000
      5      -5.7419      2.00000
      6      -5.6442      2.00000
      7      -5.6163      2.00000
      8      -5.5364      2.00000
      9      -5.3907      2.00000
     10      -5.3461      2.00000
     11      -4.5970      2.00000
     12      -3.6853      2.00000
     13       1.6509      2.00000
     14       2.5608      2.00000
     15       4.2059      2.00000
     16       5.0714      2.00000
     17       5.7653      2.00000
     18       6.7854      2.00000
     19      12.3325      0.00000
     20      13.3944      0.00000
     21      15.4966      0.00000
     22      16.4244      0.00000
     23      18.6362      0.00000
     24      19.7656      0.00000
     25      20.7332      0.00000
     26      21.0814      0.00000
     27      24.6537      0.00000
     28      26.6551      0.00000
     29      28.1681      0.00000
     30      29.0959      0.00000
     31      30.9875      0.00000
     32      33.2662      0.00000

 k-point   300 :       0.3750   -0.3750   -0.3333
  band No.  band energies     occupation 
      1      -7.9405      2.00000
      2      -7.7660      2.00000
      3      -5.8792      2.00000
      4      -5.7903      2.00000
      5      -5.7898      2.00000
      6      -5.6144      2.00000
      7      -5.5486      2.00000
      8      -5.5286      2.00000
      9      -5.3147      2.00000
     10      -5.2884      2.00000
     11      -4.0070      2.00000
     12      -3.1157      2.00000
     13       2.4234      2.00000
     14       2.7702      2.00000
     15       2.8715      2.00000
     16       4.1903      2.00000
     17       5.2882      2.00000
     18       6.2588      2.00000
     19      11.0412      0.00000
     20      12.1863      0.00000
     21      16.0277      0.00000
     22      16.8473      0.00000
     23      17.8979      0.00000
     24      20.2868      0.00000
     25      20.6598      0.00000
     26      21.0671      0.00000
     27      24.3766      0.00000
     28      27.6591      0.00000
     29      27.9022      0.00000
     30      29.5268      0.00000
     31      31.0511      0.00000
     32      33.4497      0.00000

 k-point   301 :       0.5000   -0.3750   -0.3333
  band No.  band energies     occupation 
      1      -7.8225      2.00000
      2      -7.7213      2.00000
      3      -5.8956      2.00000
      4      -5.8336      2.00000
      5      -5.7712      2.00000
      6      -5.5940      2.00000
      7      -5.5514      2.00000
      8      -5.4977      2.00000
      9      -5.2751      2.00000
     10      -5.2664      2.00000
     11      -3.3594      2.00000
     12      -2.8564      2.00000
     13       1.6189      2.00000
     14       1.7782      2.00000
     15       3.0507      2.00000
     16       3.6669      2.00000
     17       5.3107      2.00000
     18       6.4035      2.00000
     19      11.3506      0.00000
     20      12.0790      0.00000
     21      15.6369      0.00000
     22      16.7371      0.00000
     23      18.1664      0.00000
     24      19.3265      0.00000
     25      20.6287      0.00000
     26      21.7917      0.00000
     27      24.8921      0.00000
     28      27.4465      0.00000
     29      28.6107      0.00000
     30      30.3704      0.00000
     31      31.6462      0.00000
     32      33.3468      0.00000

 k-point   302 :      -0.3750   -0.3750   -0.3333
  band No.  band energies     occupation 
      1      -7.6833      2.00000
      2      -7.6502      2.00000
      3      -5.9007      2.00000
      4      -5.8131      2.00000
      5      -5.8120      2.00000
      6      -5.5687      2.00000
      7      -5.5597      2.00000
      8      -5.4802      2.00000
      9      -5.3400      2.00000
     10      -5.3244      2.00000
     11      -3.4251      2.00000
     12      -3.2739      2.00000
     13       1.5160      2.00000
     14       1.8106      2.00000
     15       2.0551      2.00000
     16       3.6282      2.00000
     17       5.9972      2.00000
     18       6.5432      2.00000
     19      12.9385      0.00000
     20      13.0491      0.00000
     21      15.6694      0.00000
     22      16.6403      0.00000
     23      17.2928      0.00000
     24      18.6472      0.00000
     25      22.1152      0.00000
     26      22.4968      0.00000
     27      24.7339      0.00000
     28      27.5294      0.00000
     29      27.7546      0.00000
     30      30.3654      0.00000
     31      32.3273      0.00000
     32      33.3335      0.00000

 k-point   303 :      -0.2500   -0.3750   -0.3333
  band No.  band energies     occupation 
      1      -7.6251      2.00000
      2      -7.5682      2.00000
      3      -5.8822      2.00000
      4      -5.8246      2.00000
      5      -5.7477      2.00000
      6      -5.6315      2.00000
      7      -5.5668      2.00000
      8      -5.5218      2.00000
      9      -5.4174      2.00000
     10      -5.3740      2.00000
     11      -4.3252      2.00000
     12      -3.8027      2.00000
     13       0.8435      2.00000
     14       1.2799      2.00000
     15       3.5142      2.00000
     16       4.8399      2.00000
     17       6.1310      2.00000
     18       6.5036      2.00000
     19      14.4921      0.00000
     20      14.8297      0.00000
     21      15.7222      0.00000
     22      16.6698      0.00000
     23      17.2056      0.00000
     24      18.6344      0.00000
     25      21.9400      0.00000
     26      23.0229      0.00000
     27      24.4081      0.00000
     28      27.1223      0.00000
     29      28.1795      0.00000
     30      29.6808      0.00000
     31      32.5981      0.00000
     32      33.1073      0.00000

 k-point   304 :      -0.1250   -0.3750   -0.3333
  band No.  band energies     occupation 
      1      -7.7210      2.00000
      2      -7.5418      2.00000
      3      -5.8668      2.00000
      4      -5.8071      2.00000
      5      -5.7376      2.00000
      6      -5.7104      2.00000
      7      -5.5985      2.00000
      8      -5.4920      2.00000
      9      -5.4360      2.00000
     10      -5.3765      2.00000
     11      -4.9852      2.00000
     12      -4.3210      2.00000
     13       0.3251      2.00000
     14       1.0793      2.00000
     15       4.9209      2.00000
     16       6.1624      2.00000
     17       6.4114      2.00000
     18       6.9871      2.00000
     19      13.9397      0.00000
     20      15.0352      0.00000
     21      16.5281      0.00000
     22      17.4936      0.00000
     23      18.0476      0.00000
     24      18.8315      0.00000
     25      21.3454      0.00000
     26      23.0775      0.00000
     27      24.2641      0.00000
     28      26.5891      0.00000
     29      28.5709      0.00000
     30      29.8232      0.00000
     31      30.7919      0.00000
     32      31.3267      0.00000

 k-point   305 :      -0.0000   -0.2500   -0.3333
  band No.  band energies     occupation 
      1      -8.5429      2.00000
      2      -7.9660      2.00000
      3      -5.9115      2.00000
      4      -5.8535      2.00000
      5      -5.7631      2.00000
      6      -5.6617      2.00000
      7      -5.5817      2.00000
      8      -5.5439      2.00000
      9      -5.4666      2.00000
     10      -5.3948      2.00000
     11      -5.3580      2.00000
     12      -4.6227      2.00000
     13       1.6535      2.00000
     14       3.0908      2.00000
     15       4.3231      2.00000
     16       6.8620      2.00000
     17       7.1751      2.00000
     18       7.7762      2.00000
     19      13.5423      0.00000
     20      14.4796      0.00000
     21      16.2159      0.00000
     22      17.1889      0.00000
     23      18.4321      0.00000
     24      18.9716      0.00000
     25      22.2872      0.00000
     26      22.8088      0.00000
     27      24.5456      0.00000
     28      26.6696      0.00000
     29      27.1623      0.00000
     30      29.0666      0.00000
     31      30.4881      0.00000
     32      32.2843      0.00000

 k-point   306 :       0.1250   -0.2500   -0.3333
  band No.  band energies     occupation 
      1      -8.5789      2.00000
      2      -8.0168      2.00000
      3      -5.8684      2.00000
      4      -5.8062      2.00000
      5      -5.7536      2.00000
      6      -5.6884      2.00000
      7      -5.6347      2.00000
      8      -5.5696      2.00000
      9      -5.4941      2.00000
     10      -5.3848      2.00000
     11      -5.2410      2.00000
     12      -4.4652      2.00000
     13       2.2087      2.00000
     14       3.7532      2.00000
     15       4.2763      2.00000
     16       6.4073      2.00000
     17       6.6688      2.00000
     18       7.4073      2.00000
     19      13.8025      0.00000
     20      14.3015      0.00000
     21      15.6905      0.00000
     22      16.6461      0.00000
     23      18.9558      0.00000
     24      19.4462      0.00000
     25      20.3244      0.00000
     26      21.0780      0.00000
     27      25.0227      0.00000
     28      26.6904      0.00000
     29      27.1453      0.00000
     30      28.2492      0.00000
     31      31.6303      0.00000
     32      32.4972      0.00000

 k-point   307 :       0.2500   -0.2500   -0.3333
  band No.  band energies     occupation 
      1      -8.3563      2.00000
      2      -7.9217      2.00000
      3      -5.8096      2.00000
      4      -5.7808      2.00000
      5      -5.7707      2.00000
      6      -5.6427      2.00000
      7      -5.6388      2.00000
      8      -5.6033      2.00000
      9      -5.4803      2.00000
     10      -5.3774      2.00000
     11      -5.0359      2.00000
     12      -4.1251      2.00000
     13       2.7980      2.00000
     14       3.8146      2.00000
     15       4.1697      2.00000
     16       5.0988      2.00000
     17       5.7351      2.00000
     18       7.0364      2.00000
     19      12.9675      0.00000
     20      13.9260      0.00000
     21      15.6113      0.00000
     22      16.6954      0.00000
     23      18.7929      0.00000
     24      19.9836      0.00000
     25      20.2092      0.00000
     26      20.6288      0.00000
     27      25.4481      0.00000
     28      25.6829      0.00000
     29      27.5572      0.00000
     30      27.5979      0.00000
     31      31.6039      0.00000
     32      33.4224      0.00000

 k-point   308 :       0.3750   -0.2500   -0.3333
  band No.  band energies     occupation 
      1      -8.0123      2.00000
      2      -7.7579      2.00000
      3      -5.8697      2.00000
      4      -5.8364      2.00000
      5      -5.7419      2.00000
      6      -5.6442      2.00000
      7      -5.6163      2.00000
      8      -5.5364      2.00000
      9      -5.3907      2.00000
     10      -5.3461      2.00000
     11      -4.5970      2.00000
     12      -3.6853      2.00000
     13       1.6509      2.00000
     14       2.5608      2.00000
     15       4.2059      2.00000
     16       5.0714      2.00000
     17       5.7653      2.00000
     18       6.7854      2.00000
     19      12.3325      0.00000
     20      13.3944      0.00000
     21      15.4966      0.00000
     22      16.4244      0.00000
     23      18.6362      0.00000
     24      19.7656      0.00000
     25      20.7332      0.00000
     26      21.0814      0.00000
     27      24.6537      0.00000
     28      26.6551      0.00000
     29      28.1681      0.00000
     30      29.0959      0.00000
     31      30.9875      0.00000
     32      33.2662      0.00000

 k-point   309 :       0.5000   -0.2500   -0.3333
  band No.  band energies     occupation 
      1      -7.7198      2.00000
      2      -7.6241      2.00000
      3      -5.9023      2.00000
      4      -5.8601      2.00000
      5      -5.7423      2.00000
      6      -5.6426      2.00000
      7      -5.5862      2.00000
      8      -5.5198      2.00000
      9      -5.3621      2.00000
     10      -5.3191      2.00000
     11      -4.0081      2.00000
     12      -3.5902      2.00000
     13       0.6957      2.00000
     14       1.1867      2.00000
     15       4.1894      2.00000
     16       4.9903      2.00000
     17       5.8307      2.00000
     18       6.7240      2.00000
     19      13.0329      0.00000
     20      13.7831      0.00000
     21      15.2638      0.00000
     22      16.2482      0.00000
     23      18.2923      0.00000
     24      19.0299      0.00000
     25      21.2320      0.00000
     26      21.9766      0.00000
     27      24.7158      0.00000
     28      26.8137      0.00000
     29      28.5767      0.00000
     30      30.2434      0.00000
     31      31.6754      0.00000
     32      33.2420      0.00000

 k-point   310 :      -0.3750   -0.2500   -0.3333
  band No.  band energies     occupation 
      1      -7.6251      2.00000
      2      -7.5682      2.00000
      3      -5.8822      2.00000
      4      -5.8246      2.00000
      5      -5.7477      2.00000
      6      -5.6315      2.00000
      7      -5.5668      2.00000
      8      -5.5218      2.00000
      9      -5.4174      2.00000
     10      -5.3740      2.00000
     11      -4.3252      2.00000
     12      -3.8027      2.00000
     13       0.8435      2.00000
     14       1.2799      2.00000
     15       3.5142      2.00000
     16       4.8398      2.00000
     17       6.1310      2.00000
     18       6.5036      2.00000
     19      14.4920      0.00000
     20      14.8298      0.00000
     21      15.7222      0.00000
     22      16.6699      0.00000
     23      17.2058      0.00000
     24      18.6343      0.00000
     25      21.9398      0.00000
     26      23.0230      0.00000
     27      24.4083      0.00000
     28      27.1223      0.00000
     29      28.1793      0.00000
     30      29.6808      0.00000
     31      32.5981      0.00000
     32      33.1073      0.00000

 k-point   311 :      -0.2500   -0.2500   -0.3333
  band No.  band energies     occupation 
      1      -7.8458      2.00000
      2      -7.6054      2.00000
      3      -5.8305      2.00000
      4      -5.7902      2.00000
      5      -5.6831      2.00000
      6      -5.6186      2.00000
      7      -5.5917      2.00000
      8      -5.5894      2.00000
      9      -5.4892      2.00000
     10      -5.4686      2.00000
     11      -5.0277      2.00000
     12      -4.1951      2.00000
     13       1.2846      2.00000
     14       2.1685      2.00000
     15       3.8633      2.00000
     16       5.1768      2.00000
     17       5.4792      2.00000
     18       6.9180      2.00000
     19      15.0908      0.00000
     20      15.7782      0.00000
     21      16.4131      0.00000
     22      17.1949      0.00000
     23      17.3405      0.00000
     24      18.3382      0.00000
     25      22.8317      0.00000
     26      23.4218      0.00000
     27      23.6182      0.00000
     28      27.6631      0.00000
     29      28.5870      0.00000
     30      28.9767      0.00000
     31      31.1199      0.00000
     32      32.3347      0.00000

 k-point   312 :      -0.1250   -0.2500   -0.3333
  band No.  band energies     occupation 
      1      -8.2409      2.00000
      2      -7.7847      2.00000
      3      -5.8526      2.00000
      4      -5.8154      2.00000
      5      -5.7406      2.00000
      6      -5.6560      2.00000
      7      -5.5785      2.00000
      8      -5.5422      2.00000
      9      -5.5214      2.00000
     10      -5.4452      2.00000
     11      -5.3146      2.00000
     12      -4.5395      2.00000
     13       1.4041      2.00000
     14       2.6477      2.00000
     15       4.5762      2.00000
     16       5.7350      2.00000
     17       6.5483      2.00000
     18       7.1535      2.00000
     19      14.2249      0.00000
     20      15.7881      0.00000
     21      16.3581      0.00000
     22      17.5229      0.00000
     23      17.8736      0.00000
     24      18.5396      0.00000
     25      23.2209      0.00000
     26      23.8736      0.00000
     27      24.1048      0.00000
     28      27.3878      0.00000
     29      28.1890      0.00000
     30      28.7807      0.00000
     31      29.1247      0.00000
     32      31.1900      0.00000

 k-point   313 :      -0.0000   -0.1250   -0.3333
  band No.  band energies     occupation 
      1      -9.0940      2.00000
      2      -8.3264      2.00000
      3      -5.8994      2.00000
      4      -5.8424      2.00000
      5      -5.7975      2.00000
      6      -5.6136      2.00000
      7      -5.5658      2.00000
      8      -5.5393      2.00000
      9      -5.4944      2.00000
     10      -5.4138      2.00000
     11      -5.3776      2.00000
     12      -4.8535      2.00000
     13       2.3696      2.00000
     14       4.9206      2.00000
     15       5.0197      2.00000
     16       6.7669      2.00000
     17       7.1038      2.00000
     18       7.7860      2.00000
     19      12.9639      0.00000
     20      13.1853      0.00000
     21      17.2892      0.00000
     22      17.6059      0.00000
     23      18.3534      0.00000
     24      19.3940      0.00000
     25      22.4267      0.00000
     26      22.6639      0.00000
     27      24.0017      0.00000
     28      26.0170      0.00000
     29      26.8079      0.00000
     30      30.0367      0.00000
     31      30.6564      0.00000
     32      32.0314      0.00000

 k-point   314 :       0.1250   -0.1250   -0.3333
  band No.  band energies     occupation 
      1      -9.0059      2.00000
      2      -8.2797      2.00000
      3      -5.8444      2.00000
      4      -5.8208      2.00000
      5      -5.7779      2.00000
      6      -5.6618      2.00000
      7      -5.5932      2.00000
      8      -5.5648      2.00000
      9      -5.5376      2.00000
     10      -5.3822      2.00000
     11      -5.3459      2.00000
     12      -4.7393      2.00000
     13       2.5521      2.00000
     14       5.0102      2.00000
     15       5.3957      2.00000
     16       6.1158      2.00000
     17       6.5487      2.00000
     18       7.6257      2.00000
     19      13.2258      0.00000
     20      13.5392      0.00000
     21      16.9059      0.00000
     22      17.4556      0.00000
     23      18.7822      0.00000
     24      19.9160      0.00000
     25      20.6012      0.00000
     26      21.0730      0.00000
     27      23.6859      0.00000
     28      26.4955      0.00000
     29      26.9406      0.00000
     30      29.5769      0.00000
     31      30.5994      0.00000
     32      32.9398      0.00000

 k-point   315 :       0.2500   -0.1250   -0.3333
  band No.  band energies     occupation 
      1      -8.5789      2.00000
      2      -8.0168      2.00000
      3      -5.8684      2.00000
      4      -5.8062      2.00000
      5      -5.7536      2.00000
      6      -5.6884      2.00000
      7      -5.6347      2.00000
      8      -5.5696      2.00000
      9      -5.4941      2.00000
     10      -5.3848      2.00000
     11      -5.2410      2.00000
     12      -4.4652      2.00000
     13       2.2087      2.00000
     14       3.7532      2.00000
     15       4.2763      2.00000
     16       6.4073      2.00000
     17       6.6688      2.00000
     18       7.4073      2.00000
     19      13.8025      0.00000
     20      14.3015      0.00000
     21      15.6905      0.00000
     22      16.6461      0.00000
     23      18.9558      0.00000
     24      19.4462      0.00000
     25      20.3244      0.00000
     26      21.0780      0.00000
     27      25.0227      0.00000
     28      26.6904      0.00000
     29      27.1453      0.00000
     30      28.2492      0.00000
     31      31.6303      0.00000
     32      32.4972      0.00000

 k-point   316 :       0.3750   -0.1250   -0.3333
  band No.  band energies     occupation 
      1      -8.0056      2.00000
      2      -7.6974      2.00000
      3      -5.8836      2.00000
      4      -5.8343      2.00000
      5      -5.8079      2.00000
      6      -5.7495      2.00000
      7      -5.5993      2.00000
      8      -5.4972      2.00000
      9      -5.4106      2.00000
     10      -5.3618      2.00000
     11      -4.9678      2.00000
     12      -4.1780      2.00000
     13       0.7488      2.00000
     14       1.7808      2.00000
     15       4.6981      2.00000
     16       6.4283      2.00000
     17       6.9877      2.00000
     18       7.2754      2.00000
     19      13.8090      0.00000
     20      14.5515      0.00000
     21      15.2349      0.00000
     22      16.4079      0.00000
     23      18.3841      0.00000
     24      18.8627      0.00000
     25      21.0736      0.00000
     26      21.2580      0.00000
     27      25.9481      0.00000
     28      26.5080      0.00000
     29      27.9824      0.00000
     30      29.6066      0.00000
     31      31.3153      0.00000
     32      31.8545      0.00000

 k-point   317 :       0.5000   -0.1250   -0.3333
  band No.  band energies     occupation 
      1      -7.6165      2.00000
      2      -7.5262      2.00000
      3      -5.8749      2.00000
      4      -5.8195      2.00000
      5      -5.7953      2.00000
      6      -5.7716      2.00000
      7      -5.5896      2.00000
      8      -5.4808      2.00000
      9      -5.3895      2.00000
     10      -5.3289      2.00000
     11      -4.5342      2.00000
     12      -4.3073      2.00000
     13       0.0711      2.00000
     14       0.4778      2.00000
     15       5.4304      2.00000
     16       5.9131      2.00000
     17       6.8050      2.00000
     18       7.1267      2.00000
     19      13.9510      0.00000
     20      14.1558      0.00000
     21      16.1802      0.00000
     22      16.8958      0.00000
     23      18.1711      0.00000
     24      18.7472      0.00000
     25      20.6078      0.00000
     26      22.3496      0.00000
     27      25.1537      0.00000
     28      26.1537      0.00000
     29      28.9157      0.00000
     30      29.9326      0.00000
     31      31.4445      0.00000
     32      32.1084      0.00000

 k-point   318 :      -0.3750   -0.1250   -0.3333
  band No.  band energies     occupation 
      1      -7.7210      2.00000
      2      -7.5418      2.00000
      3      -5.8668      2.00000
      4      -5.8071      2.00000
      5      -5.7377      2.00000
      6      -5.7104      2.00000
      7      -5.5985      2.00000
      8      -5.4920      2.00000
      9      -5.4360      2.00000
     10      -5.3765      2.00000
     11      -4.9852      2.00000
     12      -4.3210      2.00000
     13       0.3250      2.00000
     14       1.0793      2.00000
     15       4.9209      2.00000
     16       6.1624      2.00000
     17       6.4113      2.00000
     18       6.9872      2.00000
     19      13.9396      0.00000
     20      15.0354      0.00000
     21      16.5282      0.00000
     22      17.4936      0.00000
     23      18.0476      0.00000
     24      18.8314      0.00000
     25      21.3453      0.00000
     26      23.0776      0.00000
     27      24.2643      0.00000
     28      26.5892      0.00000
     29      28.5710      0.00000
     30      29.8230      0.00000
     31      30.7920      0.00000
     32      31.3265      0.00000

 k-point   319 :      -0.2500   -0.1250   -0.3333
  band No.  band energies     occupation 
      1      -8.2409      2.00000
      2      -7.7847      2.00000
      3      -5.8526      2.00000
      4      -5.8154      2.00000
      5      -5.7406      2.00000
      6      -5.6560      2.00000
      7      -5.5785      2.00000
      8      -5.5422      2.00000
      9      -5.5214      2.00000
     10      -5.4452      2.00000
     11      -5.3146      2.00000
     12      -4.5395      2.00000
     13       1.4041      2.00000
     14       2.6478      2.00000
     15       4.5762      2.00000
     16       5.7350      2.00000
     17       6.5483      2.00000
     18       7.1535      2.00000
     19      14.2248      0.00000
     20      15.7882      0.00000
     21      16.3582      0.00000
     22      17.5228      0.00000
     23      17.8737      0.00000
     24      18.5395      0.00000
     25      23.2209      0.00000
     26      23.8736      0.00000
     27      24.1048      0.00000
     28      27.3878      0.00000
     29      28.1891      0.00000
     30      28.7808      0.00000
     31      29.1248      0.00000
     32      31.1897      0.00000

 k-point   320 :      -0.1250   -0.1250   -0.3333
  band No.  band energies     occupation 
      1      -8.8033      2.00000
      2      -8.1229      2.00000
      3      -5.8906      2.00000
      4      -5.8344      2.00000
      5      -5.7967      2.00000
      6      -5.6100      2.00000
      7      -5.5606      2.00000
      8      -5.5590      2.00000
      9      -5.4754      2.00000
     10      -5.4471      2.00000
     11      -5.4041      2.00000
     12      -4.7605      2.00000
     13       2.1542      2.00000
     14       4.0653      2.00000
     15       4.7791      2.00000
     16       6.1104      2.00000
     17       7.1282      2.00000
     18       7.1393      2.00000
     19      13.8620      0.00000
     20      14.3339      0.00000
     21      17.3227      0.00000
     22      17.3781      0.00000
     23      18.0490      0.00000
     24      18.4651      0.00000
     25      23.7685      0.00000
     26      24.0491      0.00000
     27      25.3477      0.00000
     28      25.4503      0.00000
     29      27.2443      0.00000
     30      29.3970      0.00000
     31      30.0564      0.00000
     32      31.2006      0.00000

 k-point   321 :       0.0000   -0.0000   -0.1667
  band No.  band energies     occupation 
      1      -9.6344      2.00000
      2      -8.2617      2.00000
      3      -5.9130      2.00000
      4      -5.8606      2.00000
      5      -5.8080      2.00000
      6      -5.6020      2.00000
      7      -5.5925      2.00000
      8      -5.5066      2.00000
      9      -5.5023      2.00000
     10      -5.3869      2.00000
     11      -5.3233      2.00000
     12      -4.1898      2.00000
     13       0.7455      2.00000
     14       5.2415      2.00000
     15       6.9503      2.00000
     16       6.9923      2.00000
     17       7.4237      2.00000
     18       8.2450      2.00000
     19      11.5277      0.00000
     20      11.7033      0.00000
     21      17.5952      0.00000
     22      19.0236      0.00000
     23      19.4059      0.00000
     24      21.3163      0.00000
     25      22.3835      0.00000
     26      22.5457      0.00000
     27      22.7184      0.00000
     28      26.1990      0.00000
     29      26.9820      0.00000
     30      27.6996      0.00000
     31      27.9157      0.00000
     32      30.6358      0.00000

 k-point   322 :       0.1250    0.0000   -0.1667
  band No.  band energies     occupation 
      1      -9.4170      2.00000
      2      -8.1454      2.00000
      3      -5.9114      2.00000
      4      -5.8441      2.00000
      5      -5.7831      2.00000
      6      -5.6109      2.00000
      7      -5.5929      2.00000
      8      -5.5328      2.00000
      9      -5.4993      2.00000
     10      -5.4215      2.00000
     11      -5.3475      2.00000
     12      -4.0959      2.00000
     13       0.9254      2.00000
     14       4.4513      2.00000
     15       5.8554      2.00000
     16       6.7266      2.00000
     17       7.5737      2.00000
     18       8.0536      2.00000
     19      12.3760      0.00000
     20      12.5308      0.00000
     21      17.7494      0.00000
     22      18.6180      0.00000
     23      19.0757      0.00000
     24      20.2519      0.00000
     25      22.2697      0.00000
     26      22.7948      0.00000
     27      23.4145      0.00000
     28      25.0737      0.00000
     29      27.2346      0.00000
     30      28.4054      0.00000
     31      29.8797      0.00000
     32      31.4545      0.00000

 k-point   323 :       0.2500   -0.0000   -0.1667
  band No.  band energies     occupation 
      1      -8.8213      2.00000
      2      -7.8621      2.00000
      3      -5.9137      2.00000
      4      -5.8323      2.00000
      5      -5.7352      2.00000
      6      -5.6116      2.00000
      7      -5.6029      2.00000
      8      -5.5623      2.00000
      9      -5.5148      2.00000
     10      -5.4401      2.00000
     11      -5.3516      2.00000
     12      -3.9307      2.00000
     13       1.1533      2.00000
     14       2.9715      2.00000
     15       3.9041      2.00000
     16       6.8001      2.00000
     17       7.2109      2.00000
     18       8.0304      2.00000
     19      13.3931      0.00000
     20      14.1655      0.00000
     21      17.0329      0.00000
     22      17.7176      0.00000
     23      18.5982      0.00000
     24      19.4171      0.00000
     25      22.3260      0.00000
     26      23.0726      0.00000
     27      23.8822      0.00000
     28      25.9924      0.00000
     29      27.3152      0.00000
     30      29.1977      0.00000
     31      30.0714      0.00000
     32      30.7298      0.00000

 k-point   324 :       0.3750    0.0000   -0.1667
  band No.  band energies     occupation 
      1      -8.0793      2.00000
      2      -7.5932      2.00000
      3      -5.8909      2.00000
      4      -5.8021      2.00000
      5      -5.7492      2.00000
      6      -5.6845      2.00000
      7      -5.5968      2.00000
      8      -5.5590      2.00000
      9      -5.4524      2.00000
     10      -5.3735      2.00000
     11      -5.2223      2.00000
     12      -4.0082      2.00000
     13       0.4692      2.00000
     14       1.9987      2.00000
     15       3.3016      2.00000
     16       6.1302      2.00000
     17       7.1488      2.00000
     18       8.1048      2.00000
     19      14.0775      0.00000
     20      15.3438      0.00000
     21      16.3570      0.00000
     22      17.3660      0.00000
     23      18.0675      0.00000
     24      18.5104      0.00000
     25      22.4520      0.00000
     26      23.2914      0.00000
     27      23.7627      0.00000
     28      26.8040      0.00000
     29      27.9574      0.00000
     30      29.0249      0.00000
     31      30.3874      0.00000
     32      31.0416      0.00000

 k-point   325 :       0.5000    0.0000   -0.1667
  band No.  band energies     occupation 
      1      -7.6866      2.00000
      2      -7.5247      2.00000
      3      -5.8746      2.00000
      4      -5.7771      2.00000
      5      -5.7272      2.00000
      6      -5.7229      2.00000
      7      -5.5828      2.00000
      8      -5.5757      2.00000
      9      -5.4156      2.00000
     10      -5.3703      2.00000
     11      -4.7270      2.00000
     12      -4.5508      2.00000
     13       0.4012      2.00000
     14       0.9071      2.00000
     15       4.1939      2.00000
     16       5.1392      2.00000
     17       7.2834      2.00000
     18       8.1251      2.00000
     19      14.6597      0.00000
     20      14.8005      0.00000
     21      17.1139      0.00000
     22      17.2873      0.00000
     23      17.9097      0.00000
     24      17.9516      0.00000
     25      22.0780      0.00000
     26      22.7545      0.00000
     27      24.7900      0.00000
     28      25.7683      0.00000
     29      28.4464      0.00000
     30      29.4080      0.00000
     31      30.5503      0.00000
     32      31.3813      0.00000

 k-point   326 :      -0.3750   -0.0000   -0.1667
  band No.  band energies     occupation 
      1      -8.0793      2.00000
      2      -7.5932      2.00000
      3      -5.8910      2.00000
      4      -5.8021      2.00000
      5      -5.7492      2.00000
      6      -5.6845      2.00000
      7      -5.5968      2.00000
      8      -5.5590      2.00000
      9      -5.4524      2.00000
     10      -5.3735      2.00000
     11      -5.2223      2.00000
     12      -4.0082      2.00000
     13       0.4692      2.00000
     14       1.9987      2.00000
     15       3.3016      2.00000
     16       6.1301      2.00000
     17       7.1488      2.00000
     18       8.1048      2.00000
     19      14.0774      0.00000
     20      15.3439      0.00000
     21      16.3572      0.00000
     22      17.3661      0.00000
     23      18.0674      0.00000
     24      18.5104      0.00000
     25      22.4520      0.00000
     26      23.2913      0.00000
     27      23.7629      0.00000
     28      26.8040      0.00000
     29      27.9574      0.00000
     30      29.0249      0.00000
     31      30.3874      0.00000
     32      31.0414      0.00000

 k-point   327 :      -0.2500   -0.0000   -0.1667
  band No.  band energies     occupation 
      1      -8.8213      2.00000
      2      -7.8621      2.00000
      3      -5.9137      2.00000
      4      -5.8323      2.00000
      5      -5.7352      2.00000
      6      -5.6117      2.00000
      7      -5.6029      2.00000
      8      -5.5623      2.00000
      9      -5.5148      2.00000
     10      -5.4401      2.00000
     11      -5.3516      2.00000
     12      -3.9308      2.00000
     13       1.1533      2.00000
     14       2.9715      2.00000
     15       3.9042      2.00000
     16       6.8001      2.00000
     17       7.2108      2.00000
     18       8.0304      2.00000
     19      13.3930      0.00000
     20      14.1655      0.00000
     21      17.0331      0.00000
     22      17.7176      0.00000
     23      18.5980      0.00000
     24      19.4170      0.00000
     25      22.3260      0.00000
     26      23.0726      0.00000
     27      23.8823      0.00000
     28      25.9924      0.00000
     29      27.3152      0.00000
     30      29.1977      0.00000
     31      30.0714      0.00000
     32      30.7298      0.00000

 k-point   328 :      -0.1250   -0.0000   -0.1667
  band No.  band energies     occupation 
      1      -9.4170      2.00000
      2      -8.1454      2.00000
      3      -5.9114      2.00000
      4      -5.8441      2.00000
      5      -5.7831      2.00000
      6      -5.6109      2.00000
      7      -5.5929      2.00000
      8      -5.5328      2.00000
      9      -5.4993      2.00000
     10      -5.4215      2.00000
     11      -5.3475      2.00000
     12      -4.0959      2.00000
     13       0.9254      2.00000
     14       4.4513      2.00000
     15       5.8554      2.00000
     16       6.7266      2.00000
     17       7.5738      2.00000
     18       8.0536      2.00000
     19      12.3760      0.00000
     20      12.5308      0.00000
     21      17.7495      0.00000
     22      18.6180      0.00000
     23      19.0757      0.00000
     24      20.2518      0.00000
     25      22.2697      0.00000
     26      22.7947      0.00000
     27      23.4145      0.00000
     28      25.0737      0.00000
     29      27.2346      0.00000
     30      28.4055      0.00000
     31      29.8796      0.00000
     32      31.4547      0.00000

 k-point   329 :       0.0000    0.1250   -0.1667
  band No.  band energies     occupation 
      1      -9.4170      2.00000
      2      -8.1454      2.00000
      3      -5.9114      2.00000
      4      -5.8441      2.00000
      5      -5.7831      2.00000
      6      -5.6109      2.00000
      7      -5.5929      2.00000
      8      -5.5328      2.00000
      9      -5.4993      2.00000
     10      -5.4215      2.00000
     11      -5.3475      2.00000
     12      -4.0959      2.00000
     13       0.9254      2.00000
     14       4.4513      2.00000
     15       5.8554      2.00000
     16       6.7266      2.00000
     17       7.5738      2.00000
     18       8.0536      2.00000
     19      12.3760      0.00000
     20      12.5308      0.00000
     21      17.7495      0.00000
     22      18.6180      0.00000
     23      19.0757      0.00000
     24      20.2518      0.00000
     25      22.2697      0.00000
     26      22.7947      0.00000
     27      23.4145      0.00000
     28      25.0737      0.00000
     29      27.2346      0.00000
     30      28.4055      0.00000
     31      29.8796      0.00000
     32      31.4547      0.00000

 k-point   330 :       0.1250    0.1250   -0.1667
  band No.  band energies     occupation 
      1      -9.1076      2.00000
      2      -7.9806      2.00000
      3      -5.8978      2.00000
      4      -5.8010      2.00000
      5      -5.8006      2.00000
      6      -5.6197      2.00000
      7      -5.5852      2.00000
      8      -5.5317      2.00000
      9      -5.5049      2.00000
     10      -5.4455      2.00000
     11      -5.3996      2.00000
     12      -4.0382      2.00000
     13       1.1102      2.00000
     14       3.9056      2.00000
     15       4.9317      2.00000
     16       5.7864      2.00000
     17       7.4953      2.00000
     18       7.5310      2.00000
     19      13.2510      0.00000
     20      13.9722      0.00000
     21      17.8842      0.00000
     22      18.2016      0.00000
     23      19.0110      0.00000
     24      19.0407      0.00000
     25      22.5329      0.00000
     26      23.6181      0.00000
     27      25.3513      0.00000
     28      25.3671      0.00000
     29      28.0185      0.00000
     30      28.1400      0.00000
     31      29.4786      0.00000
     32      31.7918      0.00000

 k-point   331 :       0.2500    0.1250   -0.1667
  band No.  band energies     occupation 
      1      -8.4868      2.00000
      2      -7.7220      2.00000
      3      -5.8428      2.00000
      4      -5.7802      2.00000
      5      -5.7314      2.00000
      6      -5.6341      2.00000
      7      -5.6180      2.00000
      8      -5.5503      2.00000
      9      -5.5237      2.00000
     10      -5.4481      2.00000
     11      -5.3884      2.00000
     12      -3.9100      2.00000
     13       1.1884      2.00000
     14       3.1591      2.00000
     15       3.4737      2.00000
     16       5.3116      2.00000
     17       6.8487      2.00000
     18       7.1769      2.00000
     19      14.2326      0.00000
     20      15.5800      0.00000
     21      17.0686      0.00000
     22      17.7018      0.00000
     23      18.4530      0.00000
     24      19.3908      0.00000
     25      21.9578      0.00000
     26      23.6891      0.00000
     27      23.9559      0.00000
     28      26.6432      0.00000
     29      27.8530      0.00000
     30      29.1860      0.00000
     31      31.3524      0.00000
     32      32.0612      0.00000

 k-point   332 :       0.3750    0.1250   -0.1667
  band No.  band energies     occupation 
      1      -7.8673      2.00000
      2      -7.5567      2.00000
      3      -5.8549      2.00000
      4      -5.7478      2.00000
      5      -5.7152      2.00000
      6      -5.6865      2.00000
      7      -5.6252      2.00000
      8      -5.5252      2.00000
      9      -5.4458      2.00000
     10      -5.3831      2.00000
     11      -5.1094      2.00000
     12      -3.9788      2.00000
     13       0.6091      2.00000
     14       1.8274      2.00000
     15       3.6710      2.00000
     16       5.6675      2.00000
     17       5.8935      2.00000
     18       7.2081      2.00000
     19      14.5269      0.00000
     20      16.1340      0.00000
     21      16.4749      0.00000
     22      17.0063      0.00000
     23      18.3396      0.00000
     24      19.3079      0.00000
     25      20.7946      0.00000
     26      23.2076      0.00000
     27      23.6582      0.00000
     28      27.7473      0.00000
     29      28.5787      0.00000
     30      29.9724      0.00000
     31      30.7665      0.00000
     32      31.8598      0.00000

 k-point   333 :       0.5000    0.1250   -0.1667
  band No.  band energies     occupation 
      1      -7.7243      2.00000
      2      -7.5665      2.00000
      3      -5.8623      2.00000
      4      -5.7978      2.00000
      5      -5.7680      2.00000
      6      -5.7137      2.00000
      7      -5.5919      2.00000
      8      -5.5026      2.00000
      9      -5.4238      2.00000
     10      -5.3536      2.00000
     11      -4.5709      2.00000
     12      -4.2113      2.00000
     13       0.5499      2.00000
     14       1.1571      2.00000
     15       4.2054      2.00000
     16       5.1563      2.00000
     17       6.4409      2.00000
     18       7.3726      2.00000
     19      14.6321      0.00000
     20      15.2242      0.00000
     21      16.1066      0.00000
     22      16.8913      0.00000
     23      17.7830      0.00000
     24      18.2311      0.00000
     25      21.2073      0.00000
     26      23.3122      0.00000
     27      24.5843      0.00000
     28      26.4346      0.00000
     29      28.5122      0.00000
     30      30.1199      0.00000
     31      31.3613      0.00000
     32      31.9355      0.00000

 k-point   334 :      -0.3750    0.1250   -0.1667
  band No.  band energies     occupation 
      1      -8.1986      2.00000
      2      -7.6759      2.00000
      3      -5.8823      2.00000
      4      -5.8052      2.00000
      5      -5.7878      2.00000
      6      -5.6918      2.00000
      7      -5.5962      2.00000
      8      -5.5011      2.00000
      9      -5.4584      2.00000
     10      -5.3625      2.00000
     11      -5.0917      2.00000
     12      -3.6615      2.00000
     13       0.7989      2.00000
     14       2.4985      2.00000
     15       3.2078      2.00000
     16       6.1575      2.00000
     17       6.9033      2.00000
     18       7.3982      2.00000
     19      14.2035      0.00000
     20      14.6731      0.00000
     21      15.7227      0.00000
     22      16.7600      0.00000
     23      17.8967      0.00000
     24      18.2230      0.00000
     25      22.0031      0.00000
     26      22.3988      0.00000
     27      25.3040      0.00000
     28      26.0708      0.00000
     29      27.2490      0.00000
     30      29.6465      0.00000
     31      30.9572      0.00000
     32      32.4064      0.00000

 k-point   335 :      -0.2500    0.1250   -0.1667
  band No.  band energies     occupation 
      1      -8.8511      2.00000
      2      -7.9150      2.00000
      3      -5.8746      2.00000
      4      -5.7978      2.00000
      5      -5.7213      2.00000
      6      -5.6732      2.00000
      7      -5.6109      2.00000
      8      -5.5470      2.00000
      9      -5.5245      2.00000
     10      -5.3997      2.00000
     11      -5.3161      2.00000
     12      -3.7448      2.00000
     13       1.4161      2.00000
     14       3.2806      2.00000
     15       4.4864      2.00000
     16       6.3453      2.00000
     17       6.8869      2.00000
     18       7.5781      2.00000
     19      13.5310      0.00000
     20      13.7587      0.00000
     21      16.7778      0.00000
     22      17.5530      0.00000
     23      18.5142      0.00000
     24      19.0940      0.00000
     25      20.9325      0.00000
     26      21.4378      0.00000
     27      24.5130      0.00000
     28      25.8716      0.00000
     29      27.3118      0.00000
     30      28.6281      0.00000
     31      30.1948      0.00000
     32      32.8324      0.00000

 k-point   336 :      -0.1250    0.1250   -0.1667
  band No.  band energies     occupation 
      1      -9.3190      2.00000
      2      -8.1150      2.00000
      3      -5.8610      2.00000
      4      -5.8381      2.00000
      5      -5.7471      2.00000
      6      -5.6431      2.00000
      7      -5.5992      2.00000
      8      -5.5668      2.00000
      9      -5.5218      2.00000
     10      -5.4232      2.00000
     11      -5.3260      2.00000
     12      -3.9814      2.00000
     13       1.0750      2.00000
     14       4.6418      2.00000
     15       6.1431      2.00000
     16       6.4555      2.00000
     17       6.5718      2.00000
     18       7.8841      2.00000
     19      12.7209      0.00000
     20      12.8721      0.00000
     21      18.1020      0.00000
     22      18.4083      0.00000
     23      19.0216      0.00000
     24      20.1969      0.00000
     25      20.5579      0.00000
     26      21.0919      0.00000
     27      23.1697      0.00000
     28      25.3361      0.00000
     29      27.8205      0.00000
     30      29.0699      0.00000
     31      29.6313      0.00000
     32      30.8713      0.00000

 k-point   337 :       0.0000    0.2500   -0.1667
  band No.  band energies     occupation 
      1      -8.8213      2.00000
      2      -7.8621      2.00000
      3      -5.9137      2.00000
      4      -5.8323      2.00000
      5      -5.7352      2.00000
      6      -5.6117      2.00000
      7      -5.6029      2.00000
      8      -5.5623      2.00000
      9      -5.5148      2.00000
     10      -5.4401      2.00000
     11      -5.3516      2.00000
     12      -3.9308      2.00000
     13       1.1533      2.00000
     14       2.9715      2.00000
     15       3.9042      2.00000
     16       6.8001      2.00000
     17       7.2108      2.00000
     18       8.0304      2.00000
     19      13.3930      0.00000
     20      14.1655      0.00000
     21      17.0331      0.00000
     22      17.7176      0.00000
     23      18.5980      0.00000
     24      19.4170      0.00000
     25      22.3260      0.00000
     26      23.0726      0.00000
     27      23.8823      0.00000
     28      25.9924      0.00000
     29      27.3152      0.00000
     30      29.1977      0.00000
     31      30.0714      0.00000
     32      30.7298      0.00000

 k-point   338 :       0.1250    0.2500   -0.1667
  band No.  band energies     occupation 
      1      -8.4868      2.00000
      2      -7.7220      2.00000
      3      -5.8428      2.00000
      4      -5.7802      2.00000
      5      -5.7314      2.00000
      6      -5.6341      2.00000
      7      -5.6180      2.00000
      8      -5.5503      2.00000
      9      -5.5237      2.00000
     10      -5.4481      2.00000
     11      -5.3884      2.00000
     12      -3.9101      2.00000
     13       1.1883      2.00000
     14       3.1591      2.00000
     15       3.4737      2.00000
     16       5.3116      2.00000
     17       6.8486      2.00000
     18       7.1770      2.00000
     19      14.2325      0.00000
     20      15.5800      0.00000
     21      17.0687      0.00000
     22      17.7019      0.00000
     23      18.4529      0.00000
     24      19.3907      0.00000
     25      21.9579      0.00000
     26      23.6892      0.00000
     27      23.9559      0.00000
     28      26.6432      0.00000
     29      27.8530      0.00000
     30      29.1859      0.00000
     31      31.3527      0.00000
     32      32.0611      0.00000

 k-point   339 :       0.2500    0.2500   -0.1667
  band No.  band energies     occupation 
      1      -8.0169      2.00000
      2      -7.6035      2.00000
      3      -5.8356      2.00000
      4      -5.7211      2.00000
      5      -5.7031      2.00000
      6      -5.6134      2.00000
      7      -5.5730      2.00000
      8      -5.5699      2.00000
      9      -5.4839      2.00000
     10      -5.4364      2.00000
     11      -5.2352      2.00000
     12      -3.7004      2.00000
     13       1.3933      2.00000
     14       2.9007      2.00000
     15       3.4403      2.00000
     16       3.9670      2.00000
     17       5.8688      2.00000
     18       6.4035      2.00000
     19      15.0983      0.00000
     20      15.7261      0.00000
     21      16.4031      0.00000
     22      17.6747      0.00000
     23      18.3660      0.00000
     24      19.0119      0.00000
     25      22.2119      0.00000
     26      22.5260      0.00000
     27      23.4093      0.00000
     28      27.5214      0.00000
     29      29.4748      0.00000
     30      30.0020      0.00000
     31      31.5182      0.00000
     32      33.0691      0.00000

 k-point   340 :       0.3750    0.2500   -0.1667
  band No.  band energies     occupation 
      1      -7.7186      2.00000
      2      -7.6167      2.00000
      3      -5.8909      2.00000
      4      -5.7985      2.00000
      5      -5.7140      2.00000
      6      -5.5994      2.00000
      7      -5.5498      2.00000
      8      -5.4841      2.00000
      9      -5.4295      2.00000
     10      -5.3769      2.00000
     11      -4.4922      2.00000
     12      -3.5983      2.00000
     13       1.1978      2.00000
     14       1.9271      2.00000
     15       3.1339      2.00000
     16       4.9842      2.00000
     17       5.3074      2.00000
     18       5.8313      2.00000
     19      14.2391      0.00000
     20      14.9197      0.00000
     21      15.4098      0.00000
     22      17.1669      0.00000
     23      18.3291      0.00000
     24      19.1443      0.00000
     25      21.5814      0.00000
     26      23.1119      0.00000
     27      24.1352      0.00000
     28      27.2040      0.00000
     29      29.2155      0.00000
     30      30.3754      0.00000
     31      31.2565      0.00000
     32      32.9959      0.00000

 k-point   341 :       0.5000    0.2500   -0.1667
  band No.  band energies     occupation 
      1      -7.8238      2.00000
      2      -7.6596      2.00000
      3      -5.9052      2.00000
      4      -5.8555      2.00000
      5      -5.6997      2.00000
      6      -5.6097      2.00000
      7      -5.5593      2.00000
      8      -5.4589      2.00000
      9      -5.3934      2.00000
     10      -5.3288      2.00000
     11      -4.1324      2.00000
     12      -3.4403      2.00000
     13       1.0202      2.00000
     14       1.7093      2.00000
     15       3.9364      2.00000
     16       4.4169      2.00000
     17       5.7334      2.00000
     18       6.2950      2.00000
     19      12.7607      0.00000
     20      13.5697      0.00000
     21      15.3001      0.00000
     22      16.6921      0.00000
     23      18.4067      0.00000
     24      19.5009      0.00000
     25      21.5998      0.00000
     26      22.7798      0.00000
     27      24.2904      0.00000
     28      26.7042      0.00000
     29      29.1785      0.00000
     30      30.6664      0.00000
     31      31.2265      0.00000
     32      33.6791      0.00000

 k-point   342 :      -0.3750    0.2500   -0.1667
  band No.  band energies     occupation 
      1      -8.1796      2.00000
      2      -7.7468      2.00000
      3      -5.8713      2.00000
      4      -5.8421      2.00000
      5      -5.7061      2.00000
      6      -5.6199      2.00000
      7      -5.5760      2.00000
      8      -5.4789      2.00000
      9      -5.4140      2.00000
     10      -5.3345      2.00000
     11      -4.8094      2.00000
     12      -3.1200      2.00000
     13       1.5647      2.00000
     14       2.9758      2.00000
     15       3.2574      2.00000
     16       5.0975      2.00000
     17       5.6396      2.00000
     18       6.9438      2.00000
     19      12.2372      0.00000
     20      12.9376      0.00000
     21      15.9225      0.00000
     22      16.7709      0.00000
     23      17.9903      0.00000
     24      19.7461      0.00000
     25      21.4400      0.00000
     26      21.8938      0.00000
     27      24.4252      0.00000
     28      26.4133      0.00000
     29      27.8970      0.00000
     30      30.4146      0.00000
     31      31.6719      0.00000
     32      33.3891      0.00000

 k-point   343 :      -0.2500    0.2500   -0.1667
  band No.  band energies     occupation 
      1      -8.5885      2.00000
      2      -7.8588      2.00000
      3      -5.8203      2.00000
      4      -5.7914      2.00000
      5      -5.7402      2.00000
      6      -5.6140      2.00000
      7      -5.5950      2.00000
      8      -5.5561      2.00000
      9      -5.5105      2.00000
     10      -5.3270      2.00000
     11      -5.2341      2.00000
     12      -3.4116      2.00000
     13       1.9136      2.00000
     14       3.3943      2.00000
     15       4.5413      2.00000
     16       5.1947      2.00000
     17       5.6461      2.00000
     18       7.3011      2.00000
     19      12.9454      0.00000
     20      13.3360      0.00000
     21      16.5456      0.00000
     22      17.2723      0.00000
     23      18.0049      0.00000
     24      19.9520      0.00000
     25      20.4320      0.00000
     26      20.8342      0.00000
     27      25.2543      0.00000
     28      25.6798      0.00000
     29      26.6768      0.00000
     30      29.1735      0.00000
     31      32.5537      0.00000
     32      33.3053      0.00000

 k-point   344 :      -0.1250    0.2500   -0.1667
  band No.  band energies     occupation 
      1      -8.8511      2.00000
      2      -7.9150      2.00000
      3      -5.8746      2.00000
      4      -5.7978      2.00000
      5      -5.7213      2.00000
      6      -5.6732      2.00000
      7      -5.6109      2.00000
      8      -5.5470      2.00000
      9      -5.5245      2.00000
     10      -5.3997      2.00000
     11      -5.3161      2.00000
     12      -3.7448      2.00000
     13       1.4161      2.00000
     14       3.2806      2.00000
     15       4.4864      2.00000
     16       6.3453      2.00000
     17       6.8869      2.00000
     18       7.5781      2.00000
     19      13.5310      0.00000
     20      13.7587      0.00000
     21      16.7778      0.00000
     22      17.5530      0.00000
     23      18.5142      0.00000
     24      19.0940      0.00000
     25      20.9325      0.00000
     26      21.4378      0.00000
     27      24.5130      0.00000
     28      25.8716      0.00000
     29      27.3118      0.00000
     30      28.6281      0.00000
     31      30.1948      0.00000
     32      32.8324      0.00000

 k-point   345 :       0.0000    0.3750   -0.1667
  band No.  band energies     occupation 
      1      -8.0793      2.00000
      2      -7.5932      2.00000
      3      -5.8910      2.00000
      4      -5.8021      2.00000
      5      -5.7492      2.00000
      6      -5.6845      2.00000
      7      -5.5968      2.00000
      8      -5.5590      2.00000
      9      -5.4524      2.00000
     10      -5.3735      2.00000
     11      -5.2223      2.00000
     12      -4.0082      2.00000
     13       0.4692      2.00000
     14       1.9987      2.00000
     15       3.3016      2.00000
     16       6.1301      2.00000
     17       7.1488      2.00000
     18       8.1048      2.00000
     19      14.0774      0.00000
     20      15.3439      0.00000
     21      16.3572      0.00000
     22      17.3661      0.00000
     23      18.0674      0.00000
     24      18.5104      0.00000
     25      22.4520      0.00000
     26      23.2913      0.00000
     27      23.7629      0.00000
     28      26.8040      0.00000
     29      27.9574      0.00000
     30      29.0249      0.00000
     31      30.3874      0.00000
     32      31.0414      0.00000

 k-point   346 :       0.1250    0.3750   -0.1667
  band No.  band energies     occupation 
      1      -7.8673      2.00000
      2      -7.5567      2.00000
      3      -5.8549      2.00000
      4      -5.7478      2.00000
      5      -5.7152      2.00000
      6      -5.6865      2.00000
      7      -5.6252      2.00000
      8      -5.5252      2.00000
      9      -5.4458      2.00000
     10      -5.3831      2.00000
     11      -5.1093      2.00000
     12      -3.9788      2.00000
     13       0.6091      2.00000
     14       1.8275      2.00000
     15       3.6710      2.00000
     16       5.6675      2.00000
     17       5.8934      2.00000
     18       7.2080      2.00000
     19      14.5268      0.00000
     20      16.1341      0.00000
     21      16.4750      0.00000
     22      17.0064      0.00000
     23      18.3394      0.00000
     24      19.3079      0.00000
     25      20.7945      0.00000
     26      23.2077      0.00000
     27      23.6583      0.00000
     28      27.7473      0.00000
     29      28.5789      0.00000
     30      29.9724      0.00000
     31      30.7665      0.00000
     32      31.8597      0.00000

 k-point   347 :       0.2500    0.3750   -0.1667
  band No.  band energies     occupation 
      1      -7.7186      2.00000
      2      -7.6167      2.00000
      3      -5.8909      2.00000
      4      -5.7985      2.00000
      5      -5.7140      2.00000
      6      -5.5994      2.00000
      7      -5.5498      2.00000
      8      -5.4841      2.00000
      9      -5.4295      2.00000
     10      -5.3769      2.00000
     11      -4.4922      2.00000
     12      -3.5983      2.00000
     13       1.1978      2.00000
     14       1.9271      2.00000
     15       3.1339      2.00000
     16       4.9842      2.00000
     17       5.3073      2.00000
     18       5.8314      2.00000
     19      14.2390      0.00000
     20      14.9198      0.00000
     21      15.4099      0.00000
     22      17.1670      0.00000
     23      18.3290      0.00000
     24      19.1443      0.00000
     25      21.5812      0.00000
     26      23.1121      0.00000
     27      24.1353      0.00000
     28      27.2041      0.00000
     29      29.2155      0.00000
     30      30.3753      0.00000
     31      31.2562      0.00000
     32      32.9960      0.00000

 k-point   348 :       0.3750    0.3750   -0.1667
  band No.  band energies     occupation 
      1      -7.7583      2.00000
      2      -7.7041      2.00000
      3      -5.9178      2.00000
      4      -5.8681      2.00000
      5      -5.6992      2.00000
      6      -5.5617      2.00000
      7      -5.4866      2.00000
      8      -5.4447      2.00000
      9      -5.3480      2.00000
     10      -5.3226      2.00000
     11      -3.5000      2.00000
     12      -3.2315      2.00000
     13       1.5277      2.00000
     14       1.9162      2.00000
     15       2.4624      2.00000
     16       4.3593      2.00000
     17       5.1920      2.00000
     18       5.8428      2.00000
     19      12.2479      0.00000
     20      12.9597      0.00000
     21      14.4595      0.00000
     22      16.8380      0.00000
     23      18.9266      0.00000
     24      19.8375      0.00000
     25      22.5090      0.00000
     26      22.8311      0.00000
     27      24.2516      0.00000
     28      27.1630      0.00000
     29      29.7850      0.00000
     30      30.2975      0.00000
     31      30.7147      0.00000
     32      33.6978      0.00000

 k-point   349 :       0.5000    0.3750   -0.1667
  band No.  band energies     occupation 
      1      -7.9214      2.00000
      2      -7.7495      2.00000
      3      -5.9100      2.00000
      4      -5.8992      2.00000
      5      -5.6707      2.00000
      6      -5.5855      2.00000
      7      -5.4809      2.00000
      8      -5.4355      2.00000
      9      -5.2778      2.00000
     10      -5.2668      2.00000
     11      -3.5038      2.00000
     12      -2.6310      2.00000
     13       1.4385      2.00000
     14       1.7144      2.00000
     15       3.5049      2.00000
     16       4.1098      2.00000
     17       4.8377      2.00000
     18       6.4693      2.00000
     19      10.6198      0.00000
     20      11.5619      0.00000
     21      14.4409      0.00000
     22      16.5543      0.00000
     23      19.0155      0.00000
     24      20.8215      0.00000
     25      21.6334      0.00000
     26      22.4862      0.00000
     27      24.3853      0.00000
     28      27.9589      0.00000
     29      29.4006      0.00000
     30      29.9917      0.00000
     31      31.6937      0.00000
     32      32.7735      0.00000

 k-point   350 :      -0.3750    0.3750   -0.1667
  band No.  band energies     occupation 
      1      -8.0707      2.00000
      2      -7.7733      2.00000
      3      -5.8948      2.00000
      4      -5.8696      2.00000
      5      -5.6846      2.00000
      6      -5.5959      2.00000
      7      -5.4967      2.00000
      8      -5.4504      2.00000
      9      -5.3251      2.00000
     10      -5.2741      2.00000
     11      -4.2396      2.00000
     12      -2.6064      2.00000
     13       2.2989      2.00000
     14       2.3063      2.00000
     15       2.9111      2.00000
     16       4.8047      2.00000
     17       4.8422      2.00000
     18       6.6676      2.00000
     19      10.6140      0.00000
     20      11.5605      0.00000
     21      15.1587      0.00000
     22      16.7949      0.00000
     23      18.1700      0.00000
     24      21.0566      0.00000
     25      21.5393      0.00000
     26      22.1415      0.00000
     27      23.9469      0.00000
     28      27.6408      0.00000
     29      28.5960      0.00000
     30      30.5487      0.00000
     31      31.1820      0.00000
     32      32.8756      0.00000

 k-point   351 :      -0.2500    0.3750   -0.1667
  band No.  band energies     occupation 
      1      -8.1796      2.00000
      2      -7.7468      2.00000
      3      -5.8713      2.00000
      4      -5.8421      2.00000
      5      -5.7061      2.00000
      6      -5.6199      2.00000
      7      -5.5760      2.00000
      8      -5.4789      2.00000
      9      -5.4140      2.00000
     10      -5.3345      2.00000
     11      -4.8094      2.00000
     12      -3.1200      2.00000
     13       1.5647      2.00000
     14       2.9758      2.00000
     15       3.2574      2.00000
     16       5.0975      2.00000
     17       5.6396      2.00000
     18       6.9438      2.00000
     19      12.2372      0.00000
     20      12.9376      0.00000
     21      15.9225      0.00000
     22      16.7709      0.00000
     23      17.9903      0.00000
     24      19.7461      0.00000
     25      21.4400      0.00000
     26      21.8938      0.00000
     27      24.4252      0.00000
     28      26.4133      0.00000
     29      27.8970      0.00000
     30      30.4146      0.00000
     31      31.6719      0.00000
     32      33.3891      0.00000

 k-point   352 :      -0.1250    0.3750   -0.1667
  band No.  band energies     occupation 
      1      -8.1986      2.00000
      2      -7.6759      2.00000
      3      -5.8823      2.00000
      4      -5.8052      2.00000
      5      -5.7878      2.00000
      6      -5.6918      2.00000
      7      -5.5962      2.00000
      8      -5.5011      2.00000
      9      -5.4584      2.00000
     10      -5.3625      2.00000
     11      -5.0917      2.00000
     12      -3.6615      2.00000
     13       0.7989      2.00000
     14       2.4985      2.00000
     15       3.2078      2.00000
     16       6.1575      2.00000
     17       6.9033      2.00000
     18       7.3982      2.00000
     19      14.2035      0.00000
     20      14.6731      0.00000
     21      15.7227      0.00000
     22      16.7600      0.00000
     23      17.8967      0.00000
     24      18.2230      0.00000
     25      22.0031      0.00000
     26      22.3988      0.00000
     27      25.3040      0.00000
     28      26.0708      0.00000
     29      27.2490      0.00000
     30      29.6465      0.00000
     31      30.9572      0.00000
     32      32.4064      0.00000

 k-point   353 :       0.0000    0.5000   -0.1667
  band No.  band energies     occupation 
      1      -7.6866      2.00000
      2      -7.5247      2.00000
      3      -5.8746      2.00000
      4      -5.7771      2.00000
      5      -5.7272      2.00000
      6      -5.7229      2.00000
      7      -5.5828      2.00000
      8      -5.5757      2.00000
      9      -5.4156      2.00000
     10      -5.3703      2.00000
     11      -4.7270      2.00000
     12      -4.5508      2.00000
     13       0.4012      2.00000
     14       0.9071      2.00000
     15       4.1939      2.00000
     16       5.1392      2.00000
     17       7.2834      2.00000
     18       8.1251      2.00000
     19      14.6597      0.00000
     20      14.8005      0.00000
     21      17.1139      0.00000
     22      17.2873      0.00000
     23      17.9097      0.00000
     24      17.9516      0.00000
     25      22.0780      0.00000
     26      22.7545      0.00000
     27      24.7900      0.00000
     28      25.7683      0.00000
     29      28.4464      0.00000
     30      29.4080      0.00000
     31      30.5503      0.00000
     32      31.3813      0.00000

 k-point   354 :       0.1250    0.5000   -0.1667
  band No.  band energies     occupation 
      1      -7.7243      2.00000
      2      -7.5665      2.00000
      3      -5.8623      2.00000
      4      -5.7978      2.00000
      5      -5.7680      2.00000
      6      -5.7137      2.00000
      7      -5.5919      2.00000
      8      -5.5026      2.00000
      9      -5.4238      2.00000
     10      -5.3536      2.00000
     11      -4.5709      2.00000
     12      -4.2113      2.00000
     13       0.5500      2.00000
     14       1.1570      2.00000
     15       4.2054      2.00000
     16       5.1564      2.00000
     17       6.4409      2.00000
     18       7.3726      2.00000
     19      14.6319      0.00000
     20      15.2244      0.00000
     21      16.1067      0.00000
     22      16.8914      0.00000
     23      17.7829      0.00000
     24      18.2311      0.00000
     25      21.2072      0.00000
     26      23.3123      0.00000
     27      24.5844      0.00000
     28      26.4347      0.00000
     29      28.5122      0.00000
     30      30.1200      0.00000
     31      31.3612      0.00000
     32      31.9354      0.00000

 k-point   355 :       0.2500    0.5000   -0.1667
  band No.  band energies     occupation 
      1      -7.8238      2.00000
      2      -7.6596      2.00000
      3      -5.9052      2.00000
      4      -5.8555      2.00000
      5      -5.6997      2.00000
      6      -5.6096      2.00000
      7      -5.5593      2.00000
      8      -5.4589      2.00000
      9      -5.3934      2.00000
     10      -5.3288      2.00000
     11      -4.1325      2.00000
     12      -3.4403      2.00000
     13       1.0203      2.00000
     14       1.7093      2.00000
     15       3.9364      2.00000
     16       4.4169      2.00000
     17       5.7334      2.00000
     18       6.2950      2.00000
     19      12.7607      0.00000
     20      13.5697      0.00000
     21      15.3002      0.00000
     22      16.6922      0.00000
     23      18.4066      0.00000
     24      19.5010      0.00000
     25      21.5996      0.00000
     26      22.7799      0.00000
     27      24.2906      0.00000
     28      26.7042      0.00000
     29      29.1785      0.00000
     30      30.6662      0.00000
     31      31.2263      0.00000
     32      33.6791      0.00000

 k-point   356 :       0.3750    0.5000   -0.1667
  band No.  band energies     occupation 
      1      -7.9214      2.00000
      2      -7.7495      2.00000
      3      -5.9100      2.00000
      4      -5.8992      2.00000
      5      -5.6707      2.00000
      6      -5.5855      2.00000
      7      -5.4809      2.00000
      8      -5.4355      2.00000
      9      -5.2779      2.00000
     10      -5.2668      2.00000
     11      -3.5038      2.00000
     12      -2.6310      2.00000
     13       1.4385      2.00000
     14       1.7144      2.00000
     15       3.5049      2.00000
     16       4.1098      2.00000
     17       4.8376      2.00000
     18       6.4693      2.00000
     19      10.6198      0.00000
     20      11.5619      0.00000
     21      14.4409      0.00000
     22      16.5543      0.00000
     23      19.0156      0.00000
     24      20.8215      0.00000
     25      21.6333      0.00000
     26      22.4861      0.00000
     27      24.3854      0.00000
     28      27.9589      0.00000
     29      29.4006      0.00000
     30      29.9915      0.00000
     31      31.6937      0.00000
     32      32.7735      0.00000

 k-point   357 :       0.5000    0.5000   -0.1667
  band No.  band energies     occupation 
      1      -7.9597      2.00000
      2      -7.7864      2.00000
      3      -5.9293      2.00000
      4      -5.8968      2.00000
      5      -5.6513      2.00000
      6      -5.5935      2.00000
      7      -5.4654      2.00000
      8      -5.4276      2.00000
      9      -5.2242      2.00000
     10      -5.2125      2.00000
     11      -3.0892      2.00000
     12      -2.2981      2.00000
     13       0.9736      2.00000
     14       1.8807      2.00000
     15       3.5394      2.00000
     16       4.4482      2.00000
     17       4.4723      2.00000
     18       6.3982      2.00000
     19       9.7631      0.00000
     20      10.7475      0.00000
     21      14.0648      0.00000
     22      16.3745      0.00000
     23      19.4257      0.00000
     24      20.9255      0.00000
     25      21.8470      0.00000
     26      22.0195      0.00000
     27      24.9118      0.00000
     28      28.7149      0.00000
     29      29.4520      0.00000
     30      29.6885      0.00000
     31      31.8859      0.00000
     32      32.4703      0.00000

 k-point   358 :      -0.3750    0.5000   -0.1667
  band No.  band energies     occupation 
      1      -7.9214      2.00000
      2      -7.7495      2.00000
      3      -5.9100      2.00000
      4      -5.8992      2.00000
      5      -5.6707      2.00000
      6      -5.5855      2.00000
      7      -5.4809      2.00000
      8      -5.4355      2.00000
      9      -5.2778      2.00000
     10      -5.2668      2.00000
     11      -3.5038      2.00000
     12      -2.6310      2.00000
     13       1.4385      2.00000
     14       1.7144      2.00000
     15       3.5049      2.00000
     16       4.1098      2.00000
     17       4.8377      2.00000
     18       6.4693      2.00000
     19      10.6198      0.00000
     20      11.5619      0.00000
     21      14.4409      0.00000
     22      16.5543      0.00000
     23      19.0155      0.00000
     24      20.8215      0.00000
     25      21.6334      0.00000
     26      22.4862      0.00000
     27      24.3853      0.00000
     28      27.9589      0.00000
     29      29.4006      0.00000
     30      29.9917      0.00000
     31      31.6937      0.00000
     32      32.7735      0.00000

 k-point   359 :      -0.2500    0.5000   -0.1667
  band No.  band energies     occupation 
      1      -7.8238      2.00000
      2      -7.6596      2.00000
      3      -5.9052      2.00000
      4      -5.8555      2.00000
      5      -5.6997      2.00000
      6      -5.6097      2.00000
      7      -5.5593      2.00000
      8      -5.4589      2.00000
      9      -5.3934      2.00000
     10      -5.3288      2.00000
     11      -4.1324      2.00000
     12      -3.4403      2.00000
     13       1.0202      2.00000
     14       1.7093      2.00000
     15       3.9364      2.00000
     16       4.4169      2.00000
     17       5.7334      2.00000
     18       6.2950      2.00000
     19      12.7607      0.00000
     20      13.5697      0.00000
     21      15.3001      0.00000
     22      16.6921      0.00000
     23      18.4067      0.00000
     24      19.5009      0.00000
     25      21.5998      0.00000
     26      22.7798      0.00000
     27      24.2904      0.00000
     28      26.7042      0.00000
     29      29.1785      0.00000
     30      30.6664      0.00000
     31      31.2265      0.00000
     32      33.6791      0.00000

 k-point   360 :      -0.1250    0.5000   -0.1667
  band No.  band energies     occupation 
      1      -7.7243      2.00000
      2      -7.5665      2.00000
      3      -5.8623      2.00000
      4      -5.7978      2.00000
      5      -5.7680      2.00000
      6      -5.7137      2.00000
      7      -5.5919      2.00000
      8      -5.5026      2.00000
      9      -5.4238      2.00000
     10      -5.3536      2.00000
     11      -4.5709      2.00000
     12      -4.2113      2.00000
     13       0.5499      2.00000
     14       1.1571      2.00000
     15       4.2054      2.00000
     16       5.1563      2.00000
     17       6.4409      2.00000
     18       7.3726      2.00000
     19      14.6321      0.00000
     20      15.2242      0.00000
     21      16.1066      0.00000
     22      16.8913      0.00000
     23      17.7830      0.00000
     24      18.2311      0.00000
     25      21.2073      0.00000
     26      23.3122      0.00000
     27      24.5843      0.00000
     28      26.4346      0.00000
     29      28.5122      0.00000
     30      30.1199      0.00000
     31      31.3613      0.00000
     32      31.9355      0.00000

 k-point   361 :      -0.0000   -0.3750   -0.1667
  band No.  band energies     occupation 
      1      -8.0793      2.00000
      2      -7.5932      2.00000
      3      -5.8909      2.00000
      4      -5.8021      2.00000
      5      -5.7492      2.00000
      6      -5.6845      2.00000
      7      -5.5968      2.00000
      8      -5.5590      2.00000
      9      -5.4524      2.00000
     10      -5.3735      2.00000
     11      -5.2223      2.00000
     12      -4.0082      2.00000
     13       0.4692      2.00000
     14       1.9987      2.00000
     15       3.3016      2.00000
     16       6.1302      2.00000
     17       7.1488      2.00000
     18       8.1048      2.00000
     19      14.0775      0.00000
     20      15.3438      0.00000
     21      16.3570      0.00000
     22      17.3660      0.00000
     23      18.0675      0.00000
     24      18.5104      0.00000
     25      22.4520      0.00000
     26      23.2914      0.00000
     27      23.7627      0.00000
     28      26.8040      0.00000
     29      27.9574      0.00000
     30      29.0249      0.00000
     31      30.3874      0.00000
     32      31.0416      0.00000

 k-point   362 :       0.1250   -0.3750   -0.1667
  band No.  band energies     occupation 
      1      -8.1987      2.00000
      2      -7.6759      2.00000
      3      -5.8823      2.00000
      4      -5.8052      2.00000
      5      -5.7878      2.00000
      6      -5.6918      2.00000
      7      -5.5962      2.00000
      8      -5.5012      2.00000
      9      -5.4584      2.00000
     10      -5.3625      2.00000
     11      -5.0917      2.00000
     12      -3.6614      2.00000
     13       0.7990      2.00000
     14       2.4985      2.00000
     15       3.2078      2.00000
     16       6.1576      2.00000
     17       6.9033      2.00000
     18       7.3982      2.00000
     19      14.2036      0.00000
     20      14.6730      0.00000
     21      15.7227      0.00000
     22      16.7600      0.00000
     23      17.8967      0.00000
     24      18.2231      0.00000
     25      22.0029      0.00000
     26      22.3989      0.00000
     27      25.3041      0.00000
     28      26.0709      0.00000
     29      27.2490      0.00000
     30      29.6465      0.00000
     31      30.9571      0.00000
     32      32.4066      0.00000

 k-point   363 :       0.2500   -0.3750   -0.1667
  band No.  band energies     occupation 
      1      -8.1796      2.00000
      2      -7.7468      2.00000
      3      -5.8713      2.00000
      4      -5.8421      2.00000
      5      -5.7061      2.00000
      6      -5.6199      2.00000
      7      -5.5760      2.00000
      8      -5.4789      2.00000
      9      -5.4140      2.00000
     10      -5.3345      2.00000
     11      -4.8094      2.00000
     12      -3.1200      2.00000
     13       1.5648      2.00000
     14       2.9758      2.00000
     15       3.2573      2.00000
     16       5.0975      2.00000
     17       5.6396      2.00000
     18       6.9438      2.00000
     19      12.2372      0.00000
     20      12.9376      0.00000
     21      15.9225      0.00000
     22      16.7710      0.00000
     23      17.9903      0.00000
     24      19.7461      0.00000
     25      21.4401      0.00000
     26      21.8937      0.00000
     27      24.4254      0.00000
     28      26.4133      0.00000
     29      27.8969      0.00000
     30      30.4145      0.00000
     31      31.6715      0.00000
     32      33.3892      0.00000

 k-point   364 :       0.3750   -0.3750   -0.1667
  band No.  band energies     occupation 
      1      -8.0707      2.00000
      2      -7.7733      2.00000
      3      -5.8948      2.00000
      4      -5.8696      2.00000
      5      -5.6846      2.00000
      6      -5.5959      2.00000
      7      -5.4967      2.00000
      8      -5.4504      2.00000
      9      -5.3251      2.00000
     10      -5.2741      2.00000
     11      -4.2396      2.00000
     12      -2.6064      2.00000
     13       2.2989      2.00000
     14       2.3063      2.00000
     15       2.9112      2.00000
     16       4.8047      2.00000
     17       4.8421      2.00000
     18       6.6676      2.00000
     19      10.6139      0.00000
     20      11.5605      0.00000
     21      15.1588      0.00000
     22      16.7949      0.00000
     23      18.1702      0.00000
     24      21.0565      0.00000
     25      21.5393      0.00000
     26      22.1415      0.00000
     27      23.9470      0.00000
     28      27.6408      0.00000
     29      28.5959      0.00000
     30      30.5483      0.00000
     31      31.1819      0.00000
     32      32.8757      0.00000

 k-point   365 :       0.5000   -0.3750   -0.1667
  band No.  band energies     occupation 
      1      -7.9214      2.00000
      2      -7.7495      2.00000
      3      -5.9100      2.00000
      4      -5.8992      2.00000
      5      -5.6707      2.00000
      6      -5.5855      2.00000
      7      -5.4809      2.00000
      8      -5.4355      2.00000
      9      -5.2779      2.00000
     10      -5.2668      2.00000
     11      -3.5038      2.00000
     12      -2.6310      2.00000
     13       1.4385      2.00000
     14       1.7144      2.00000
     15       3.5049      2.00000
     16       4.1098      2.00000
     17       4.8376      2.00000
     18       6.4693      2.00000
     19      10.6198      0.00000
     20      11.5619      0.00000
     21      14.4409      0.00000
     22      16.5543      0.00000
     23      19.0156      0.00000
     24      20.8215      0.00000
     25      21.6333      0.00000
     26      22.4861      0.00000
     27      24.3854      0.00000
     28      27.9589      0.00000
     29      29.4006      0.00000
     30      29.9915      0.00000
     31      31.6937      0.00000
     32      32.7735      0.00000

 k-point   366 :      -0.3750   -0.3750   -0.1667
  band No.  band energies     occupation 
      1      -7.7583      2.00000
      2      -7.7041      2.00000
      3      -5.9178      2.00000
      4      -5.8681      2.00000
      5      -5.6992      2.00000
      6      -5.5617      2.00000
      7      -5.4866      2.00000
      8      -5.4447      2.00000
      9      -5.3480      2.00000
     10      -5.3226      2.00000
     11      -3.5000      2.00000
     12      -3.2315      2.00000
     13       1.5277      2.00000
     14       1.9162      2.00000
     15       2.4624      2.00000
     16       4.3593      2.00000
     17       5.1920      2.00000
     18       5.8428      2.00000
     19      12.2479      0.00000
     20      12.9597      0.00000
     21      14.4595      0.00000
     22      16.8380      0.00000
     23      18.9266      0.00000
     24      19.8375      0.00000
     25      22.5090      0.00000
     26      22.8311      0.00000
     27      24.2516      0.00000
     28      27.1630      0.00000
     29      29.7850      0.00000
     30      30.2975      0.00000
     31      30.7147      0.00000
     32      33.6978      0.00000

 k-point   367 :      -0.2500   -0.3750   -0.1667
  band No.  band energies     occupation 
      1      -7.7186      2.00000
      2      -7.6167      2.00000
      3      -5.8909      2.00000
      4      -5.7985      2.00000
      5      -5.7140      2.00000
      6      -5.5994      2.00000
      7      -5.5498      2.00000
      8      -5.4841      2.00000
      9      -5.4295      2.00000
     10      -5.3769      2.00000
     11      -4.4922      2.00000
     12      -3.5983      2.00000
     13       1.1978      2.00000
     14       1.9271      2.00000
     15       3.1339      2.00000
     16       4.9842      2.00000
     17       5.3074      2.00000
     18       5.8313      2.00000
     19      14.2391      0.00000
     20      14.9197      0.00000
     21      15.4098      0.00000
     22      17.1669      0.00000
     23      18.3291      0.00000
     24      19.1443      0.00000
     25      21.5814      0.00000
     26      23.1119      0.00000
     27      24.1352      0.00000
     28      27.2040      0.00000
     29      29.2155      0.00000
     30      30.3754      0.00000
     31      31.2565      0.00000
     32      32.9959      0.00000

 k-point   368 :      -0.1250   -0.3750   -0.1667
  band No.  band energies     occupation 
      1      -7.8673      2.00000
      2      -7.5567      2.00000
      3      -5.8549      2.00000
      4      -5.7478      2.00000
      5      -5.7152      2.00000
      6      -5.6865      2.00000
      7      -5.6252      2.00000
      8      -5.5252      2.00000
      9      -5.4458      2.00000
     10      -5.3831      2.00000
     11      -5.1094      2.00000
     12      -3.9788      2.00000
     13       0.6091      2.00000
     14       1.8274      2.00000
     15       3.6710      2.00000
     16       5.6675      2.00000
     17       5.8935      2.00000
     18       7.2081      2.00000
     19      14.5269      0.00000
     20      16.1340      0.00000
     21      16.4749      0.00000
     22      17.0063      0.00000
     23      18.3396      0.00000
     24      19.3079      0.00000
     25      20.7946      0.00000
     26      23.2076      0.00000
     27      23.6582      0.00000
     28      27.7473      0.00000
     29      28.5787      0.00000
     30      29.9724      0.00000
     31      30.7665      0.00000
     32      31.8598      0.00000

 k-point   369 :      -0.0000   -0.2500   -0.1667
  band No.  band energies     occupation 
      1      -8.8213      2.00000
      2      -7.8621      2.00000
      3      -5.9137      2.00000
      4      -5.8323      2.00000
      5      -5.7352      2.00000
      6      -5.6116      2.00000
      7      -5.6029      2.00000
      8      -5.5623      2.00000
      9      -5.5148      2.00000
     10      -5.4401      2.00000
     11      -5.3516      2.00000
     12      -3.9307      2.00000
     13       1.1533      2.00000
     14       2.9715      2.00000
     15       3.9041      2.00000
     16       6.8001      2.00000
     17       7.2109      2.00000
     18       8.0304      2.00000
     19      13.3931      0.00000
     20      14.1655      0.00000
     21      17.0329      0.00000
     22      17.7176      0.00000
     23      18.5982      0.00000
     24      19.4171      0.00000
     25      22.3260      0.00000
     26      23.0726      0.00000
     27      23.8822      0.00000
     28      25.9924      0.00000
     29      27.3152      0.00000
     30      29.1977      0.00000
     31      30.0714      0.00000
     32      30.7298      0.00000

 k-point   370 :       0.1250   -0.2500   -0.1667
  band No.  band energies     occupation 
      1      -8.8511      2.00000
      2      -7.9150      2.00000
      3      -5.8746      2.00000
      4      -5.7978      2.00000
      5      -5.7213      2.00000
      6      -5.6732      2.00000
      7      -5.6109      2.00000
      8      -5.5470      2.00000
      9      -5.5245      2.00000
     10      -5.3998      2.00000
     11      -5.3161      2.00000
     12      -3.7447      2.00000
     13       1.4161      2.00000
     14       3.2806      2.00000
     15       4.4864      2.00000
     16       6.3453      2.00000
     17       6.8868      2.00000
     18       7.5782      2.00000
     19      13.5310      0.00000
     20      13.7587      0.00000
     21      16.7776      0.00000
     22      17.5530      0.00000
     23      18.5143      0.00000
     24      19.0940      0.00000
     25      20.9326      0.00000
     26      21.4378      0.00000
     27      24.5130      0.00000
     28      25.8715      0.00000
     29      27.3119      0.00000
     30      28.6281      0.00000
     31      30.1947      0.00000
     32      32.8324      0.00000

 k-point   371 :       0.2500   -0.2500   -0.1667
  band No.  band energies     occupation 
      1      -8.5885      2.00000
      2      -7.8588      2.00000
      3      -5.8203      2.00000
      4      -5.7914      2.00000
      5      -5.7402      2.00000
      6      -5.6140      2.00000
      7      -5.5950      2.00000
      8      -5.5561      2.00000
      9      -5.5105      2.00000
     10      -5.3270      2.00000
     11      -5.2341      2.00000
     12      -3.4115      2.00000
     13       1.9136      2.00000
     14       3.3943      2.00000
     15       4.5412      2.00000
     16       5.1947      2.00000
     17       5.6461      2.00000
     18       7.3011      2.00000
     19      12.9453      0.00000
     20      13.3360      0.00000
     21      16.5456      0.00000
     22      17.2724      0.00000
     23      18.0050      0.00000
     24      19.9519      0.00000
     25      20.4320      0.00000
     26      20.8343      0.00000
     27      25.2544      0.00000
     28      25.6799      0.00000
     29      26.6767      0.00000
     30      29.1735      0.00000
     31      32.5533      0.00000
     32      33.3053      0.00000

 k-point   372 :       0.3750   -0.2500   -0.1667
  band No.  band energies     occupation 
      1      -8.1796      2.00000
      2      -7.7468      2.00000
      3      -5.8713      2.00000
      4      -5.8421      2.00000
      5      -5.7061      2.00000
      6      -5.6199      2.00000
      7      -5.5760      2.00000
      8      -5.4789      2.00000
      9      -5.4140      2.00000
     10      -5.3345      2.00000
     11      -4.8094      2.00000
     12      -3.1200      2.00000
     13       1.5648      2.00000
     14       2.9758      2.00000
     15       3.2573      2.00000
     16       5.0975      2.00000
     17       5.6396      2.00000
     18       6.9438      2.00000
     19      12.2372      0.00000
     20      12.9376      0.00000
     21      15.9225      0.00000
     22      16.7710      0.00000
     23      17.9903      0.00000
     24      19.7461      0.00000
     25      21.4401      0.00000
     26      21.8937      0.00000
     27      24.4254      0.00000
     28      26.4133      0.00000
     29      27.8969      0.00000
     30      30.4145      0.00000
     31      31.6715      0.00000
     32      33.3892      0.00000

 k-point   373 :       0.5000   -0.2500   -0.1667
  band No.  band energies     occupation 
      1      -7.8238      2.00000
      2      -7.6596      2.00000
      3      -5.9052      2.00000
      4      -5.8555      2.00000
      5      -5.6997      2.00000
      6      -5.6096      2.00000
      7      -5.5593      2.00000
      8      -5.4589      2.00000
      9      -5.3934      2.00000
     10      -5.3288      2.00000
     11      -4.1325      2.00000
     12      -3.4403      2.00000
     13       1.0203      2.00000
     14       1.7093      2.00000
     15       3.9364      2.00000
     16       4.4169      2.00000
     17       5.7334      2.00000
     18       6.2950      2.00000
     19      12.7607      0.00000
     20      13.5697      0.00000
     21      15.3002      0.00000
     22      16.6922      0.00000
     23      18.4066      0.00000
     24      19.5010      0.00000
     25      21.5996      0.00000
     26      22.7799      0.00000
     27      24.2906      0.00000
     28      26.7042      0.00000
     29      29.1785      0.00000
     30      30.6662      0.00000
     31      31.2263      0.00000
     32      33.6791      0.00000

 k-point   374 :      -0.3750   -0.2500   -0.1667
  band No.  band energies     occupation 
      1      -7.7186      2.00000
      2      -7.6167      2.00000
      3      -5.8909      2.00000
      4      -5.7985      2.00000
      5      -5.7140      2.00000
      6      -5.5994      2.00000
      7      -5.5498      2.00000
      8      -5.4841      2.00000
      9      -5.4295      2.00000
     10      -5.3769      2.00000
     11      -4.4922      2.00000
     12      -3.5983      2.00000
     13       1.1978      2.00000
     14       1.9271      2.00000
     15       3.1339      2.00000
     16       4.9842      2.00000
     17       5.3073      2.00000
     18       5.8314      2.00000
     19      14.2390      0.00000
     20      14.9198      0.00000
     21      15.4099      0.00000
     22      17.1670      0.00000
     23      18.3290      0.00000
     24      19.1443      0.00000
     25      21.5812      0.00000
     26      23.1121      0.00000
     27      24.1353      0.00000
     28      27.2041      0.00000
     29      29.2155      0.00000
     30      30.3753      0.00000
     31      31.2562      0.00000
     32      32.9960      0.00000

 k-point   375 :      -0.2500   -0.2500   -0.1667
  band No.  band energies     occupation 
      1      -8.0169      2.00000
      2      -7.6035      2.00000
      3      -5.8356      2.00000
      4      -5.7211      2.00000
      5      -5.7031      2.00000
      6      -5.6134      2.00000
      7      -5.5730      2.00000
      8      -5.5699      2.00000
      9      -5.4839      2.00000
     10      -5.4364      2.00000
     11      -5.2352      2.00000
     12      -3.7004      2.00000
     13       1.3933      2.00000
     14       2.9007      2.00000
     15       3.4403      2.00000
     16       3.9670      2.00000
     17       5.8688      2.00000
     18       6.4035      2.00000
     19      15.0983      0.00000
     20      15.7261      0.00000
     21      16.4031      0.00000
     22      17.6747      0.00000
     23      18.3660      0.00000
     24      19.0119      0.00000
     25      22.2119      0.00000
     26      22.5260      0.00000
     27      23.4093      0.00000
     28      27.5214      0.00000
     29      29.4748      0.00000
     30      30.0020      0.00000
     31      31.5182      0.00000
     32      33.0691      0.00000

 k-point   376 :      -0.1250   -0.2500   -0.1667
  band No.  band energies     occupation 
      1      -8.4868      2.00000
      2      -7.7220      2.00000
      3      -5.8428      2.00000
      4      -5.7802      2.00000
      5      -5.7314      2.00000
      6      -5.6341      2.00000
      7      -5.6180      2.00000
      8      -5.5503      2.00000
      9      -5.5237      2.00000
     10      -5.4481      2.00000
     11      -5.3884      2.00000
     12      -3.9100      2.00000
     13       1.1884      2.00000
     14       3.1591      2.00000
     15       3.4737      2.00000
     16       5.3116      2.00000
     17       6.8487      2.00000
     18       7.1769      2.00000
     19      14.2326      0.00000
     20      15.5800      0.00000
     21      17.0686      0.00000
     22      17.7018      0.00000
     23      18.4530      0.00000
     24      19.3908      0.00000
     25      21.9578      0.00000
     26      23.6891      0.00000
     27      23.9559      0.00000
     28      26.6432      0.00000
     29      27.8530      0.00000
     30      29.1860      0.00000
     31      31.3524      0.00000
     32      32.0612      0.00000

 k-point   377 :      -0.0000   -0.1250   -0.1667
  band No.  band energies     occupation 
      1      -9.4170      2.00000
      2      -8.1454      2.00000
      3      -5.9114      2.00000
      4      -5.8441      2.00000
      5      -5.7831      2.00000
      6      -5.6109      2.00000
      7      -5.5929      2.00000
      8      -5.5328      2.00000
      9      -5.4993      2.00000
     10      -5.4215      2.00000
     11      -5.3475      2.00000
     12      -4.0959      2.00000
     13       0.9254      2.00000
     14       4.4513      2.00000
     15       5.8554      2.00000
     16       6.7266      2.00000
     17       7.5737      2.00000
     18       8.0536      2.00000
     19      12.3760      0.00000
     20      12.5308      0.00000
     21      17.7494      0.00000
     22      18.6180      0.00000
     23      19.0757      0.00000
     24      20.2519      0.00000
     25      22.2697      0.00000
     26      22.7948      0.00000
     27      23.4145      0.00000
     28      25.0737      0.00000
     29      27.2346      0.00000
     30      28.4054      0.00000
     31      29.8797      0.00000
     32      31.4545      0.00000

 k-point   378 :       0.1250   -0.1250   -0.1667
  band No.  band energies     occupation 
      1      -9.3190      2.00000
      2      -8.1150      2.00000
      3      -5.8610      2.00000
      4      -5.8381      2.00000
      5      -5.7471      2.00000
      6      -5.6431      2.00000
      7      -5.5992      2.00000
      8      -5.5667      2.00000
      9      -5.5218      2.00000
     10      -5.4232      2.00000
     11      -5.3260      2.00000
     12      -3.9814      2.00000
     13       1.0750      2.00000
     14       4.6418      2.00000
     15       6.1431      2.00000
     16       6.4554      2.00000
     17       6.5718      2.00000
     18       7.8842      2.00000
     19      12.7209      0.00000
     20      12.8720      0.00000
     21      18.1019      0.00000
     22      18.4083      0.00000
     23      19.0217      0.00000
     24      20.1970      0.00000
     25      20.5580      0.00000
     26      21.0919      0.00000
     27      23.1699      0.00000
     28      25.3360      0.00000
     29      27.8205      0.00000
     30      29.0698      0.00000
     31      29.6314      0.00000
     32      30.8713      0.00000

 k-point   379 :       0.2500   -0.1250   -0.1667
  band No.  band energies     occupation 
      1      -8.8511      2.00000
      2      -7.9150      2.00000
      3      -5.8746      2.00000
      4      -5.7978      2.00000
      5      -5.7213      2.00000
      6      -5.6732      2.00000
      7      -5.6109      2.00000
      8      -5.5470      2.00000
      9      -5.5245      2.00000
     10      -5.3998      2.00000
     11      -5.3161      2.00000
     12      -3.7447      2.00000
     13       1.4161      2.00000
     14       3.2806      2.00000
     15       4.4864      2.00000
     16       6.3453      2.00000
     17       6.8868      2.00000
     18       7.5782      2.00000
     19      13.5310      0.00000
     20      13.7587      0.00000
     21      16.7776      0.00000
     22      17.5530      0.00000
     23      18.5143      0.00000
     24      19.0940      0.00000
     25      20.9326      0.00000
     26      21.4378      0.00000
     27      24.5130      0.00000
     28      25.8715      0.00000
     29      27.3119      0.00000
     30      28.6281      0.00000
     31      30.1947      0.00000
     32      32.8324      0.00000

 k-point   380 :       0.3750   -0.1250   -0.1667
  band No.  band energies     occupation 
      1      -8.1987      2.00000
      2      -7.6759      2.00000
      3      -5.8823      2.00000
      4      -5.8052      2.00000
      5      -5.7878      2.00000
      6      -5.6918      2.00000
      7      -5.5962      2.00000
      8      -5.5012      2.00000
      9      -5.4584      2.00000
     10      -5.3625      2.00000
     11      -5.0917      2.00000
     12      -3.6614      2.00000
     13       0.7990      2.00000
     14       2.4985      2.00000
     15       3.2078      2.00000
     16       6.1576      2.00000
     17       6.9033      2.00000
     18       7.3982      2.00000
     19      14.2036      0.00000
     20      14.6730      0.00000
     21      15.7227      0.00000
     22      16.7600      0.00000
     23      17.8967      0.00000
     24      18.2231      0.00000
     25      22.0029      0.00000
     26      22.3989      0.00000
     27      25.3041      0.00000
     28      26.0709      0.00000
     29      27.2490      0.00000
     30      29.6465      0.00000
     31      30.9571      0.00000
     32      32.4066      0.00000

 k-point   381 :       0.5000   -0.1250   -0.1667
  band No.  band energies     occupation 
      1      -7.7243      2.00000
      2      -7.5665      2.00000
      3      -5.8623      2.00000
      4      -5.7978      2.00000
      5      -5.7680      2.00000
      6      -5.7137      2.00000
      7      -5.5919      2.00000
      8      -5.5026      2.00000
      9      -5.4238      2.00000
     10      -5.3536      2.00000
     11      -4.5709      2.00000
     12      -4.2113      2.00000
     13       0.5500      2.00000
     14       1.1570      2.00000
     15       4.2054      2.00000
     16       5.1564      2.00000
     17       6.4409      2.00000
     18       7.3726      2.00000
     19      14.6319      0.00000
     20      15.2244      0.00000
     21      16.1067      0.00000
     22      16.8914      0.00000
     23      17.7829      0.00000
     24      18.2311      0.00000
     25      21.2072      0.00000
     26      23.3123      0.00000
     27      24.5844      0.00000
     28      26.4347      0.00000
     29      28.5122      0.00000
     30      30.1200      0.00000
     31      31.3612      0.00000
     32      31.9354      0.00000

 k-point   382 :      -0.3750   -0.1250   -0.1667
  band No.  band energies     occupation 
      1      -7.8673      2.00000
      2      -7.5567      2.00000
      3      -5.8549      2.00000
      4      -5.7478      2.00000
      5      -5.7152      2.00000
      6      -5.6865      2.00000
      7      -5.6252      2.00000
      8      -5.5252      2.00000
      9      -5.4458      2.00000
     10      -5.3831      2.00000
     11      -5.1094      2.00000
     12      -3.9788      2.00000
     13       0.6091      2.00000
     14       1.8275      2.00000
     15       3.6710      2.00000
     16       5.6675      2.00000
     17       5.8934      2.00000
     18       7.2080      2.00000
     19      14.5268      0.00000
     20      16.1341      0.00000
     21      16.4750      0.00000
     22      17.0064      0.00000
     23      18.3394      0.00000
     24      19.3079      0.00000
     25      20.7945      0.00000
     26      23.2077      0.00000
     27      23.6583      0.00000
     28      27.7473      0.00000
     29      28.5789      0.00000
     30      29.9724      0.00000
     31      30.7665      0.00000
     32      31.8597      0.00000

 k-point   383 :      -0.2500   -0.1250   -0.1667
  band No.  band energies     occupation 
      1      -8.4868      2.00000
      2      -7.7220      2.00000
      3      -5.8428      2.00000
      4      -5.7802      2.00000
      5      -5.7314      2.00000
      6      -5.6341      2.00000
      7      -5.6180      2.00000
      8      -5.5503      2.00000
      9      -5.5237      2.00000
     10      -5.4481      2.00000
     11      -5.3884      2.00000
     12      -3.9101      2.00000
     13       1.1883      2.00000
     14       3.1591      2.00000
     15       3.4737      2.00000
     16       5.3116      2.00000
     17       6.8486      2.00000
     18       7.1770      2.00000
     19      14.2325      0.00000
     20      15.5800      0.00000
     21      17.0687      0.00000
     22      17.7019      0.00000
     23      18.4529      0.00000
     24      19.3907      0.00000
     25      21.9579      0.00000
     26      23.6892      0.00000
     27      23.9559      0.00000
     28      26.6432      0.00000
     29      27.8530      0.00000
     30      29.1859      0.00000
     31      31.3527      0.00000
     32      32.0611      0.00000

 k-point   384 :      -0.1250   -0.1250   -0.1667
  band No.  band energies     occupation 
      1      -9.1076      2.00000
      2      -7.9806      2.00000
      3      -5.8978      2.00000
      4      -5.8010      2.00000
      5      -5.8006      2.00000
      6      -5.6197      2.00000
      7      -5.5852      2.00000
      8      -5.5317      2.00000
      9      -5.5049      2.00000
     10      -5.4455      2.00000
     11      -5.3996      2.00000
     12      -4.0382      2.00000
     13       1.1102      2.00000
     14       3.9056      2.00000
     15       4.9317      2.00000
     16       5.7864      2.00000
     17       7.4953      2.00000
     18       7.5310      2.00000
     19      13.2510      0.00000
     20      13.9722      0.00000
     21      17.8842      0.00000
     22      18.2016      0.00000
     23      19.0110      0.00000
     24      19.0407      0.00000
     25      22.5329      0.00000
     26      23.6181      0.00000
     27      25.3513      0.00000
     28      25.3671      0.00000
     29      28.0185      0.00000
     30      28.1400      0.00000
     31      29.4786      0.00000
     32      31.7918      0.00000


--------------------------------------------------------------------------------------------------------


 soft charge-density along one line, spin component           1
         0         1         2         3         4         5         6         7         8         9
 total charge-density along one line
 
 pseudopotential strength for first ion, spin component:           1
 -9.222   0.000  -0.000  -0.030   0.000  -0.876  -0.000   0.000
  0.000  -9.292  -0.018   0.000   0.031  -0.000  -0.835   0.010
 -0.000  -0.018  -9.253   0.000  -0.054   0.000   0.010  -0.859
 -0.030   0.000   0.000  -9.200   0.000   0.017  -0.000  -0.000
  0.000   0.031  -0.054   0.000  -9.210  -0.000  -0.018   0.032
 -0.876  -0.000   0.000   0.017  -0.000   5.627   0.000   0.000
 -0.000  -0.835   0.010  -0.000  -0.018   0.000   5.602  -0.006
  0.000   0.010  -0.859  -0.000   0.032   0.000  -0.006   5.619
  0.017  -0.000  -0.000  -0.889  -0.000  -0.009  -0.000   0.000
 -0.000  -0.018   0.032  -0.000  -0.884  -0.000   0.010  -0.019
  0.000   0.002   0.001   0.000  -0.004  -0.000   0.002   0.000
 -0.000   0.006   0.002  -0.000  -0.004  -0.000  -0.002   0.001
 -0.000  -0.008   0.005  -0.000   0.010   0.000   0.004  -0.002
 -0.000  -0.008  -0.013  -0.000   0.001   0.000   0.004   0.006
 -0.007  -0.000   0.000  -0.007  -0.000   0.002   0.000  -0.000
  0.000   0.012  -0.006   0.000  -0.013  -0.000  -0.003   0.001
  0.000   0.011   0.014   0.000  -0.001  -0.000  -0.003  -0.001
  0.010   0.000  -0.000   0.010   0.000  -0.001  -0.000   0.000
 total augmentation occupancy for first ion, spin component:           1
  2.017  -0.000   0.000   0.001  -0.000   0.037  -0.000   0.000   0.004  -0.000  -0.000  -0.000   0.000   0.000  -0.012   0.000
 -0.000   2.015  -0.001  -0.000   0.002  -0.000   0.032  -0.002  -0.000   0.009   0.001  -0.001  -0.005  -0.001   0.000  -0.000
  0.000  -0.001   2.024   0.000  -0.004   0.000  -0.002   0.064   0.000  -0.012   0.003  -0.001  -0.007   0.035   0.000  -0.001
  0.001  -0.000   0.000   2.019   0.000   0.004  -0.000   0.000   0.042   0.000   0.000  -0.000   0.000  -0.000  -0.019  -0.000
 -0.000   0.002  -0.004   0.000   2.024  -0.000   0.009  -0.013   0.000   0.071   0.003   0.004  -0.024  -0.007   0.000  -0.003
  0.037  -0.000   0.000   0.004  -0.000   0.076   0.000   0.000   0.010  -0.000  -0.000  -0.000  -0.000   0.000  -0.088  -0.000
 -0.000   0.032  -0.002  -0.000   0.009   0.000   0.064  -0.011   0.000   0.036  -0.030  -0.001  -0.067  -0.010   0.000  -0.002
  0.000  -0.002   0.064   0.000  -0.013   0.000  -0.011   0.172  -0.000  -0.038  -0.016  -0.001  -0.044   0.304  -0.000  -0.001
  0.004  -0.000   0.000   0.042   0.000   0.010   0.000  -0.000   0.087   0.000   0.000  -0.000  -0.000  -0.000  -0.143   0.000
 -0.000   0.009  -0.012   0.000   0.071  -0.000   0.036  -0.038   0.000   0.217   0.099   0.003  -0.226  -0.076   0.000  -0.005
 -0.000   0.001   0.003   0.000   0.003  -0.000  -0.030  -0.016   0.000   0.099   1.330   0.046   0.057   0.078   0.000   0.003
 -0.000  -0.001  -0.001  -0.000   0.004  -0.000  -0.001  -0.001  -0.000   0.003   0.046   0.003   0.003   0.003   0.000   0.000
  0.000  -0.005  -0.007   0.000  -0.024  -0.000  -0.067  -0.044  -0.000  -0.226   0.057   0.003   0.990  -0.096  -0.000   0.023
  0.000  -0.001   0.035  -0.000  -0.007   0.000  -0.010   0.304  -0.000  -0.076   0.078   0.003  -0.096   1.156  -0.000  -0.002
 -0.012   0.000   0.000  -0.019   0.000  -0.088   0.000  -0.000  -0.143   0.000   0.000   0.000  -0.000  -0.000   1.334  -0.000
  0.000  -0.000  -0.001  -0.000  -0.003  -0.000  -0.002  -0.001   0.000  -0.005   0.003   0.000   0.023  -0.002  -0.000   0.001
  0.000   0.000   0.005   0.000  -0.001  -0.000  -0.000   0.007   0.000  -0.001   0.003   0.000  -0.002   0.027  -0.000  -0.000
 -0.001   0.000   0.000  -0.002   0.000  -0.002   0.000  -0.000  -0.004   0.000   0.000   0.000  -0.000  -0.000   0.035  -0.000


------------------------ aborting loop because EDIFF is reached ----------------------------------------


    CHARGE:  cpu time      0.1319: real time      0.1319
    FORLOC:  cpu time      0.0009: real time      0.0016
    FORNL :  cpu time      0.1434: real time      0.1489
    STRESS:  cpu time      3.4678: real time      3.4958
    FORCOR:  cpu time      0.0056: real time      0.0102
    FORHAR:  cpu time      0.0017: real time      0.0030
    MIXING:  cpu time      0.0005: real time      0.0005
    OFIELD:  cpu time      0.0002: real time      0.0014

  FORCE on cell =-STRESS in cart. coord.  units (eV):
  Direction    XX          YY          ZZ          XY          YZ          ZX
  --------------------------------------------------------------------------------------
  Alpha Z   246.68183   246.68183   246.68183
  Ewald   -1004.43288 -1244.37354 -1230.84031     0.00000     0.00886    -0.00000
  Hartree   398.89956   293.64097   288.84052     0.00000     0.00438    -0.00000
  E(xc)    -202.41815  -203.08866  -202.97970     0.00000     0.00003    -0.00000
  Local      -3.70559   334.68427   328.69595    -0.00000    -0.01316     0.00000
  n-local     3.49012    -7.68926    -3.51635     0.00000     0.00043    -0.00000
  augment   246.53090   247.73800   246.78932    -0.00000     0.00017     0.00000
  Kinetic   325.46956   342.89208   337.00497    -0.00000    -0.00071    -0.00000
  Fock        0.00000     0.00000     0.00000     0.00000     0.00000     0.00000
  -------------------------------------------------------------------------------------
  Total      10.51535    10.48568    10.67623     0.00000    -0.00002    -0.00000
  in kB     460.21149   458.91312   467.25248     0.00000    -0.00104    -0.00002
  external pressure =      462.13 kB  Pullay stress =        0.00 kB


 VOLUME and BASIS-vectors are now :
 -----------------------------------------------------------------------------
  energy-cutoff  :      600.00
  volume of cell :       36.61
      direct lattice vectors                 reciprocal lattice vectors
     1.797939366 -2.174469529 -0.000011658     0.278096141 -0.229941139  0.000001079
     1.797939367  2.174469530  0.000011669     0.278096141  0.229941139 -0.000001081
     0.000000012  0.000021988  4.681859094    -0.000000001 -0.000001146  0.213590367

  length of vectors
     2.821507345  2.821507346  4.681859094     0.360846770  0.360846769  0.213590367


 FORCES acting on ions
    electron-ion (+dipol)            ewald-force                    non-local-force                 convergence-correction
 -----------------------------------------------------------------------------------------------
   0.692E-06 0.583E+02 0.290E+02   -.670E-06 -.532E+02 -.234E+02   -.662E-07 -.510E+01 -.561E+01   -.106E-06 0.352E-03 0.117E-03
   0.643E-05 -.583E+02 0.290E+02   -.592E-05 0.532E+02 -.235E+02   -.704E-06 0.510E+01 -.561E+01   -.469E-07 -.352E-03 0.116E-03
   -.529E-05 0.486E+02 -.210E+02   0.560E-05 -.527E+02 0.234E+02   -.241E-06 0.417E+01 -.237E+01   0.470E-07 0.156E-03 -.533E-04
   -.786E-06 -.486E+02 -.210E+02   0.990E-06 0.527E+02 0.234E+02   -.658E-07 -.417E+01 -.237E+01   -.124E-07 -.156E-03 -.532E-04
 -----------------------------------------------------------------------------------------------
   0.105E-05 -.172E-03 0.159E+02   0.130E-13 -.711E-14 0.000E+00   -.108E-05 -.519E-03 -.159E+02   -.118E-06 -.243E-06 0.127E-03
 
 
 POSITION                                       TOTAL-FORCE (eV/Angst)
 -----------------------------------------------------------------------------------
      1.79794     -0.67195      2.44342        -0.000000     -0.002070     -0.034931
      1.79794      1.07212      0.10251        -0.000000      0.002061     -0.034968
      1.79794     -0.80998      4.31388         0.000000     -0.006465      0.034964
      1.79794      1.21021      1.97296         0.000000      0.006475      0.034934
 -----------------------------------------------------------------------------------
    total drift:                               -0.000000     -0.000692     -0.000280


--------------------------------------------------------------------------------------------------------



  FREE ENERGIE OF THE ION-ELECTRON SYSTEM (eV)
  ---------------------------------------------------
  free  energy   TOTEN  =       -21.93788180 eV

  energy  without entropy=      -21.93788180  energy(sigma->0) =      -21.93788180
 


--------------------------------------------------------------------------------------------------------


    POTLOK:  cpu time      0.0096: real time      0.0109


--------------------------------------------------------------------------------------------------------


     LOOP+:  cpu time    121.3643: real time    122.1203
    4ORBIT:  cpu time      0.0000: real time      0.0000

 total amount of memory used by VASP MPI-rank0   177935. kBytes
=======================================================================

   base      :      30000. kBytes
   nonl-proj :     138098. kBytes
   fftplans  :        347. kBytes
   grid      :       1368. kBytes
   one-center:         62. kBytes
   wavefun   :       8060. kBytes
 
  
  
 General timing and accounting informations for this job:
 ========================================================
  
                  Total CPU time used (sec):      124.213
                            User time (sec):      122.093
                          System time (sec):        2.120
                         Elapsed time (sec):      127.179
  
                   Maximum memory used (kb):      272840.
                   Average memory used (kb):          N/A
  
                          Minor page faults:        47408
                          Major page faults:            0
                 Voluntary context switches:         3509
