Hf O 
 1.0000000000000000
     5.1665778613206390    0.0000012837870552    0.0000015403459497
     0.0000012009982910    5.1336654219717355   -0.0000017075507837
     0.0000020058500344   -0.0000017321441978    5.1443921343742502
 Hf  O  
   4   8
Direct
  0.0105172308458374  0.0057179155614944 -0.0106431790988293
 -0.0170074124548493  0.4911102280762064  0.4893559810545128
  0.4829931896685942  0.0057169500450229  0.4893575336831458
  0.5105179203043382  0.4911098502223268 -0.0106445338469769
  0.2146526104960055  0.2952578913082106  0.2090566836634872
  0.2788509757192165  0.2952575319181500  0.7090572485582739
  0.1773968736297811  0.8039439736789661  0.3120897818878102
  0.3161032216466569  0.8039426710009884  0.8120890237095563
  0.7146536560812977  0.2015675442929962  0.2090593942506068
  0.7788498972758543  0.2015677528908054  0.7090598390884159
  0.6773971366824907  0.6928765560861242  0.3120895771040036
  0.8161031527310741  0.6928776795750109  0.8120889609081742
