Hf O 
 1.0000000000000000
     5.1604406469111419    0.0000000017278288    0.0000068180136466
     0.0000000038694730    5.1490817266606648   -0.0000021607582344
     0.0000069518333649   -0.0000021862912002    5.1545433555986495
 Hf  O  
   4   8
Direct
 -0.0000000000000003 -0.0000000000000002  0.0000000000000004
  0.0000000000000009  0.5000000000000037  0.4999999999999974
  0.4999999999999999 -0.0000000000000002  0.4999999999999971
  0.5000000000000001  0.5000000000000024  0.0000000000000004
  0.1984562006285732  0.3018604395530191  0.1974574168664762
  0.3015418506680491  0.3018601168073284  0.6974579392527351
  0.1984583955745069  0.8018598718044898  0.3025410909896864
  0.3015435257079072  0.8018601014634607  0.8025415793234678
  0.6984564742920938  0.1981398985365453  0.1974584206765259
  0.8015416044254980  0.1981401281955167  0.6974589090103076
  0.6984581493319562  0.6981398831926795  0.3025420607472585
  0.8015437993714276  0.6981395604469880  0.8025425831335180
