Hf O 
 1.0000000000000000
     5.1665778613207900    0.0000012837870047    0.0000015403458360
     0.0000012009982442    5.1336654219717310   -0.0000017075507936
     0.0000020058499270   -0.0000017321442078    5.1443921343742796
 Hf  O  
   4   8
Direct
 -0.0105172308459675 -0.0057179155614615  0.0106431790985013
  0.0170074124547633  0.5088897719241045  0.5106440189454553
  0.5170068103314590 -0.0057169500452564  0.5106424663168031
  0.4894820796958930  0.5088901497776408  0.0106445338470359
  0.1838968472690347  0.3071223204249991  0.1879110390916786
  0.3226028633175397  0.3071234439137825  0.6879104228961233
  0.2211501027240064  0.7984322471092458  0.2909401609113258
  0.2853463439186351  0.7984324557070128  0.7909406057495173
  0.6838967783533613  0.1960573289990598  0.1879109762903125
  0.8226031263704170  0.1960560263208753  0.6879102181120664
  0.7211490242808761  0.7047424680816345  0.2909427514418375
  0.7853473895039899  0.7047421086918033  0.7909433163367688
