Hf O 
 1.0000000000000000
     5.2247171627747750   -0.0000009155682411    0.0000087293015840
    -0.0000008642963012    5.0656822081534250   -0.0000098722751913
     0.0000090219260742   -0.0000099427812857    5.0976821944358184
 Hf  O  
   4   8
Direct
  0.0110804000346928  0.0061582453808908 -0.0116780537609263
 -0.0500531164736238  0.4747888137675280  0.4883230779268788
  0.4499465852998008  0.0061597512897965  0.4883213395148574
  0.5110798155010992  0.4747885704025884 -0.0116769349728414
  0.2385869604438233  0.2788181787988532  0.2366419890004657
  0.2224358662578049  0.2788180833606441  0.7366423315871867
  0.1268989317661282  0.8040099099934649  0.3380649213379196
  0.3341242193722911  0.8040083022183994  0.8380645796484899
  0.7385869137767884  0.2021250143763813  0.2366429271807880
  0.7224358948750377  0.2021250346155392  0.7366434600175976
  0.6268975808860771  0.6769329297293161  0.3380678452559565
  0.8341255153665577  0.6769341386609815  0.8380674964957773
