Hf O 
 1.0000000000000000
     5.1866460709559545   -0.0000032313996768    0.0000032122793206
    -0.0000030309157206    5.0997327481780319   -0.0000037165923616
     0.0000036660783758   -0.0000037521061414    5.1220947550632259
 Hf  O  
   4   8
Direct
  0.0155547154826281  0.0086034521226547 -0.0158842651462866
 -0.0338790023727016  0.4824383681275957  0.4841166231056411
  0.4661208583894036  0.0086034198502832  0.4841158553982035
  0.5155538245171839  0.4824380706053832 -0.0158835268380384
  0.2297614103331349  0.2872153836775942  0.2226169804560215
  0.2519037721333184  0.2872137197124801  0.7226179756638500
  0.1535540762382646  0.8047070829812031  0.3229056130356209
  0.3281202342500093  0.8047068707361427  0.8229058710966979
  0.7297614209990934  0.2038230576021605  0.2226171998631818
  0.7519037639772853  0.2038245410089305  0.7226182804625869
  0.6535531638719581  0.6863303796139262  0.3229076391442270
  0.8281212872229804  0.6863303386263168  0.8229079865606139
