Hf O 
 1.0000000000000000
     5.2247171627751152   -0.0000009155682320    0.0000087293016044
    -0.0000008642962923    5.0656822081532864   -0.0000098722752351
     0.0000090219260933   -0.0000099427813299    5.0976821944358139
 Hf  O  
   4   8
Direct
 -0.0110804000347515 -0.0061582453808977  0.0116780537610563
  0.0500531164737195  0.5252111862324413  0.5116769220731496
  0.5500534147002398 -0.0061597512898309  0.5116786604851576
  0.4889201844987241  0.5252114295973362  0.0116769349731574
  0.1658744846336170  0.3230658613389997  0.1619325035041762
  0.3731024191137241  0.3230670702704723  0.6619321547441241
  0.2775641051250577  0.7978749653843779  0.2633565399822602
  0.2614130862228807  0.7978749856235424  0.7633570728190929
  0.6658757806278689  0.1959916977815739  0.1619354203515362
  0.8731010682340371  0.1959900900065279  0.6619350786620242
  0.7775641337421655  0.7211819166392266  0.2633576684127645
  0.7614130395563786  0.7211818212011069  0.7633580109994983
