Hf O 
 1.0000000000000000
     5.1866460709558462   -0.0000032313996694    0.0000032122794188
    -0.0000030309157127    5.0997327481780417   -0.0000037165923722
     0.0000036660784684   -0.0000037521061522    5.1220947550632632
 Hf  O  
   4   8
Direct
 -0.0155547154827850 -0.0086034521223629  0.0158842651462491
  0.0338790023726094  0.5175616318724711  0.5158833768942934
  0.5338791416103803 -0.0086034198502483  0.5158841446014638
  0.4844461754825725  0.5175619293946719  0.0158835268378622
  0.1718787127769584  0.3136696613736690  0.1770920134393601
  0.3464468361278011  0.3136696203859017  0.6770923608556578
  0.2480962360227108  0.7961754589910440  0.2773817195372863
  0.2702385790009158  0.7961769423978589  0.7773828001369568
  0.6718797657498027  0.1952931292636093  0.1770941289032739
  0.8464459237620733  0.1952929170188015  0.6770943869645986
  0.7480962278668360  0.7127862802874749  0.2773820243360963
  0.7702385896669368  0.7127846163222569  0.7773830195441730
