Ga N
 1.0000000000000000
     4.0609233093905583    0.0000000000000000    0.0000000000000000
     0.0000000000000000    4.0609233093905583   -0.0000000000000000
    -0.0000000000000000   -0.0000000000000000    4.0609233093905583
 Ga  N
   4   4
Selective dynamics
Direct
  0.0000000000000000  0.0000000000000000  0.0000000000000000   T   T   T
  0.0000000000000000  0.4999999999999999  0.4999999999999999   T   T   T
  0.4999999999999999  0.0000000000000000  0.4999999999999999   T   T   T
  0.4999999999999999  0.4999999999999999  0.0000000000000000   T   T   T
  0.4999999999999999  0.4999999999999999  0.4999999999999999   T   T   T
  0.4999999999999999  0.9999999999999998  0.9999999999999998   T   T   T
  0.9999999999999998  0.4999999999999999  0.9999999999999998   T   T   T
  0.9999999999999998  0.9999999999999998  0.4999999999999999   T   T   T
