Hf O
 1.0000000000000000
     5.2659161792208575    0.0000003543564044    0.0000110592891538
     0.0000003543564038    5.0502039247530739   -0.0000004799226094
     0.0000114148916043   -0.0000004953541381    5.0805009265258416
 Hf  O
   4   8
Direct
 -0.0000000000000000 -0.0000000000000001  0.0000000000000001
  0.0650192911975134  0.5317835208691940  0.4999995860981986
  0.5650192587985388  0.0000000555351009  0.5000000436235964
  0.4999998289971289  0.5317830625443229 -0.0000008651399779
  0.1673951564620830  0.3340793158779308  0.1432064123019559
  0.3976123392171474  0.3340768417607105  0.6432074917005867
  0.3028574144965904  0.8024622091643717  0.2516518198125899
  0.2621562010534135  0.8024632069960993  0.7516514181233899
  0.6673956094907250  0.1977075310769747  0.1432087338261679
  0.8976122460619848  0.1977096809647397  0.6432097471197262
  0.8028568703314790  0.7293244795818039  0.2516541514657325
  0.7621570574470838  0.7293234910863351  0.7516539724768142
