Ga N                                    
   1.00000000000000     
     1.5141707812342886   -2.6226251941874015    0.0000000067762520
     1.5141707856526871    2.6226251967126988   -0.0000000084182155
    -0.0000000031868416   -0.0000000137866114    4.9414107560309519
   Ga   N 
     2     2
Direct
  0.6666664893526628  0.3333335096662736  0.4995807330667873
  0.3333335077005050  0.6666664887944376  0.9995807326860696
  0.6666665291123811  0.3333334707545177  0.8754192674554730
  0.3333334738344511  0.6666665307847712  0.3754192668429569
 
  0.00000000E+00  0.00000000E+00  0.00000000E+00
  0.00000000E+00  0.00000000E+00  0.00000000E+00
  0.00000000E+00  0.00000000E+00  0.00000000E+00
  0.00000000E+00  0.00000000E+00  0.00000000E+00
