Ga N                                    
   1.00000000000000     
     1.5149879074238479   -2.6240360285105586    0.0000000000000000
     1.5149879074238479    2.6240360285105586    0.0000000000000000
     0.0000000000000000    0.0000000000000000    4.9358873385404651
   Ga   N 
     2     2
Direct
  0.6666666666666643  0.3333333333333357  0.4993523764645005
  0.3333333333333357  0.6666666666666643  0.9993523764645005
  0.6666666666666643  0.3333333333333357  0.8756476235611430
  0.3333333333333357  0.6666666666666643  0.3756476235611430
 
  0.00000000E+00  0.00000000E+00  0.00000000E+00
  0.00000000E+00  0.00000000E+00  0.00000000E+00
  0.00000000E+00  0.00000000E+00  0.00000000E+00
  0.00000000E+00  0.00000000E+00  0.00000000E+00
