 running on   32 total cores
 distrk:  each k-point on   32 cores,    1 groups
 distr:  one band on    1 cores,   32 groups
 vasp.6.3.2 27Jun22 (build Sep 18 2026 15:57:57) complex                        
  
 POSCAR found type information on POSCAR GaN 
 POSCAR found :  2 types and       4 ions
 scaLAPACK will be used
 -----------------------------------------------------------------------------
|                                                                             |
|           W    W    AA    RRRRR   N    N  II  N    N   GGGG   !!!           |
|           W    W   A  A   R    R  NN   N  II  NN   N  G    G  !!!           |
|           W    W  A    A  R    R  N N  N  II  N N  N  G       !!!           |
|           W WW W  AAAAAA  RRRRR   N  N N  II  N  N N  G  GGG   !            |
|           WW  WW  A    A  R   R   N   NN  II  N   NN  G    G                |
|           W    W  A    A  R    R  N    N  II  N    N   GGGG   !!!           |
|                                                                             |
|     For optimal performance we recommend to set                             |
|       NCORE = 2 up to number-of-cores-per-socket                            |
|     NCORE specifies how many cores store one orbital (NPAR=cpu/NCORE).      |
|     This setting can greatly improve the performance of VASP for DFT.       |
|     The default, NCORE=1 might be grossly inefficient on modern             |
|     multi-core architectures or massively parallel machines. Do your        |
|     own testing! More info at https://www.vasp.at/wiki/index.php/NCORE      |
|     Unfortunately you need to use the default for GW and RPA                |
|     calculations (for HF NCORE is supported but not extensively tested      |
|     yet).                                                                   |
|                                                                             |
 -----------------------------------------------------------------------------

 LDA part: xc-table for Pade appr. of Perdew
 POSCAR, INCAR and KPOINTS ok, starting setup
 FFT: planning ... GRIDC
 FFT: planning ... GRID_SOFT
 FFT: planning ... GRID
 WAVECAR not read
 entering main loop
       N       E                     dE             d eps       ncg     rms          rms(c)
DAV:   1     0.624224973063E+02    0.62422E+02   -0.23221E+04 24576   0.240E+03
DAV:   2    -0.266056468059E+02   -0.89028E+02   -0.88770E+02 29376   0.161E+02
DAV:   3    -0.279707517729E+02   -0.13651E+01   -0.13651E+01 29568   0.263E+01
DAV:   4    -0.279755375153E+02   -0.47857E-02   -0.47857E-02 41120   0.134E+00
DAV:   5    -0.279755382464E+02   -0.73115E-06   -0.73115E-06 31392   0.149E-02    0.118E+01
DAV:   6    -0.234250653287E+02    0.45505E+01   -0.26196E+01 36800   0.462E+01    0.406E+00
DAV:   7    -0.233850744386E+02    0.39991E-01   -0.21855E-01 25216   0.410E+00    0.251E+00
DAV:   8    -0.233668470092E+02    0.18227E-01   -0.42011E-02 33792   0.191E+00    0.295E-01
DAV:   9    -0.233666933301E+02    0.15368E-03   -0.41689E-03 34400   0.134E+00    0.129E-01
DAV:  10    -0.233669967927E+02   -0.30346E-03   -0.54618E-04 32192   0.144E-01    0.391E-02
DAV:  11    -0.233670048172E+02   -0.80245E-05   -0.92726E-05 35808   0.459E-02    0.421E-03
DAV:  12    -0.233670049793E+02   -0.16211E-06   -0.20026E-06 35392   0.919E-03    0.543E-03
DAV:  13    -0.233670049042E+02    0.75162E-07   -0.35564E-07 35872   0.288E-03
   1 F= -.12173146E+02 E0= -.12173146E+02  d E =-.121731E+02
 curvature:   0.00 expect dE= 0.000E+00 dE for cont linesearch  0.000E+00
 trial: gam= 0.00000 g(F)=  0.295E-05 g(S)=  0.433E-04 ort = 0.000E+00 (trialstep = 0.100E+01)
 search vector abs. value=  0.462E-04
 bond charge predicted
       N       E                     dE             d eps       ncg     rms          rms(c)
DAV:   1    -0.233675758916E+02   -0.57091E-03   -0.22168E-03 44288   0.276E-01    0.515E-02
DAV:   2    -0.233675209919E+02    0.54900E-04   -0.38466E-05 24576   0.663E-02    0.299E-02
DAV:   3    -0.233674959467E+02    0.25045E-04   -0.46761E-05 38112   0.738E-02    0.307E-03
DAV:   4    -0.233674958783E+02    0.68397E-07   -0.20726E-06 24960   0.112E-02    0.908E-04
DAV:   5    -0.233674958797E+02   -0.13679E-08   -0.66930E-08 22496   0.268E-03
   2 F= -.12173179E+02 E0= -.12173179E+02  d E =-.326714E-04
 trial-energy change:   -0.000033  1 .order   -0.000032   -0.000046   -0.000019
 step:   1.6827(harm=  1.6827)  dis= 0.00022  next Energy=   -12.173185 (dE=-0.389E-04)
 bond charge predicted
       N       E                     dE             d eps       ncg     rms          rms(c)
DAV:   1    -0.233678510950E+02   -0.35522E-03   -0.10334E-03 44288   0.188E-01    0.352E-02
DAV:   2    -0.233678254968E+02    0.25598E-04   -0.17934E-05 24576   0.452E-02    0.204E-02
DAV:   3    -0.233678138127E+02    0.11684E-04   -0.21816E-05 37920   0.504E-02    0.210E-03
DAV:   4    -0.233678137784E+02    0.34280E-07   -0.97882E-07 25152   0.764E-03
   3 F= -.12173186E+02 E0= -.12173186E+02  d E =-.393663E-04
 curvature:  -0.84 expect dE=-0.344E-04 dE for cont linesearch -0.135E-07
 trial: gam= 0.86486 g(F)=  0.385E-04 g(S)=  0.233E-05 ort = 0.861E-06 (trialstep = 0.683E+00)
 search vector abs. value=  0.769E-04
 bond charge predicted
       N       E                     dE             d eps       ncg     rms          rms(c)
DAV:   1    -0.233677077850E+02    0.10603E-03   -0.28416E-03 25216   0.285E-01    0.224E-02
DAV:   2    -0.233677008083E+02    0.69768E-05   -0.19687E-05 36320   0.371E-02    0.132E-02
DAV:   3    -0.233676965830E+02    0.42253E-05   -0.64288E-06 32000   0.263E-02    0.111E-03
DAV:   4    -0.233676966071E+02   -0.24115E-07   -0.28932E-07 31232   0.403E-03
   4 F= -.12173208E+02 E0= -.12173208E+02  d E =-.222615E-04
 trial-energy change:   -0.000022  1 .order   -0.000022   -0.000028   -0.000016
 step:   1.5125(harm=  1.5125)  dis= 0.00090  next Energy=   -12.173217 (dE=-0.314E-04)
 bond charge predicted
       N       E                     dE             d eps       ncg     rms          rms(c)
DAV:   1    -0.233675535973E+02    0.14299E-03   -0.41875E-03 25728   0.346E-01    0.273E-02
DAV:   2    -0.233675431549E+02    0.10442E-04   -0.28537E-05 35328   0.448E-02    0.160E-02
DAV:   3    -0.233675368860E+02    0.62690E-05   -0.96090E-06 32544   0.321E-02    0.134E-03
DAV:   4    -0.233675369194E+02   -0.33435E-07   -0.42440E-07 31104   0.488E-03
   5 F= -.12173218E+02 E0= -.12173218E+02  d E =-.325847E-04
 curvature:  -1.40 expect dE=-0.429E-07 dE for cont linesearch -0.576E-08
 trial: gam=-0.00642 g(F)=  0.220E-08 g(S)=  0.285E-07 ort = 0.563E-06 (trialstep = 0.849E+00)
 search vector abs. value=  0.267E-07
 reached required accuracy - stopping structural energy minimisation
