Hf O 
 1.0000000000000000
     5.1843848585910930    0.0000325357876542    0.0000422289342609
     0.0000322741941816    5.0708530637129083    0.0118948649717031
     0.0000437419917689    0.0115378836730853    5.0921652235439474
 Hf  O  
   4   8
Direct
 -0.0131694396507528 -0.0095638617555420  0.0148571193422486
 -0.0143955341526331  0.4892598678964137  0.5122522882577993
  0.4865431207489053 -0.0095580225543325  0.5148642712563480
  0.4877751770511073  0.4892692237050461  0.0122628353505885
  0.2801372577989876  0.2440741120843873  0.2535970635883840
  0.1932421276949330  0.2440679904038295  0.7535946152954792
  0.1890848315274523  0.7509750086857671  0.2839161916270640
  0.2843021941804243  0.7509715174481182  0.7839168609168106
  0.7805891671048329  0.2394944225640079  0.2756370643700770
  0.6927893525465405  0.2394905487551676  0.7756388430382225
  0.6898092884327337  0.7467189283680520  0.2458273272361658
  0.7835786143782301  0.7467150774450042  0.7458274627432709
