Hf O 
 1.0000000000000000
     5.2350314234189250    0.0000118331617726    0.0000470326183854
     0.0000103055784657    5.0757558526992614   -0.0057767023547356
     0.0000486136862334   -0.0077609234919936    5.0763650647499770
 Hf  O  
   4   8
Direct
 -0.0110859380286639 -0.0068462118346471  0.0133073568372173
 -0.0085063195427178  0.4934844964495704  0.5133585391596976
  0.4907877486716262 -0.0068325722953580  0.5132192123612747
  0.4880741532623914  0.4934902691059428  0.0133833214224343
  0.2935535367061133  0.2451344371992717  0.2650025240229568
  0.1829256513018530  0.2451313846313734  0.7650483118143285
  0.1833204000965710  0.7463063522461690  0.2678855761343701
  0.2931366410565248  0.7462169446663446  0.7679096151016628
  0.7944167374997720  0.2443994809997715  0.2648005932220095
  0.6820063003890139  0.2443732860623669  0.7647741855436349
  0.6823001505903532  0.7476561306820541  0.2547809592530582
  0.7941063217034605  0.7475391688708625  0.7547764131187433
