Hf O 
 1.0000000000000000
     5.0944786118036154   -0.0000131957851184    0.0000369009280531
    -0.0000136378992700    5.0744328733364972    0.0498336923196780
     0.0000390576306071    0.0531094084720211    5.1914907584648802
 Hf  O  
   4   8
Direct
 -0.0119556597643700 -0.0128469335654216  0.0225330271667043
 -0.0234409934003319  0.4837061324013761  0.5093414120117665
  0.4803247956207336 -0.0128564265687514  0.5225365779691659
  0.4918089461383036  0.4837132718636052  0.0093423832421727
  0.2397415071789933  0.2502139935879972  0.2209800872535088
  0.2286018712824306  0.2501895536066291  0.7209819450207297
  0.2073178593735837  0.7587593384570935  0.3226694088499870
  0.2610296157753543  0.7587376963556085  0.8226669912428363
  0.7425965983495891  0.2338122894685237  0.3056821293447390
  0.7257500775535605  0.2337950279375340  0.8056826246847377
  0.7140533206863661  0.7399812046152591  0.2211475644219334
  0.7542948636483540  0.7399625947723655  0.7211477454175810
