Hf O 
 1.0000000000000000
     5.2810602370177762   -0.0000019662660497   -0.0000418063954574
    -0.0000023374114523    5.0705198731056633    0.0113257964506086
    -0.0000476972566265    0.0102388208215534    5.0929866004751609
 Hf  O  
   4   8
Direct
  0.0130630778373736  0.0027072664864095 -0.0112868514377849
 -0.0379897633811699  0.4816192573720157  0.4876344337528448
  0.4628133477977471  0.0027027191904413  0.4887192833424647
  0.5138693758044189  0.4816156011944371 -0.0123715947757638
  0.2754911470438539  0.2693634798915892  0.2417086286378501
  0.2003970951349118  0.2693704429776795  0.7417095758059356
  0.1428115317242555  0.7915447030510446  0.3146719058312472
  0.3330319167029313  0.7915392658496718  0.8146689454982134
  0.7751644684304345  0.2205124553030771  0.2365674276326163
  0.7007235662895185  0.2205049560515498  0.7365684533989020
  0.6440063455220435  0.6988652924723566  0.3087540424196453
  0.8318361553503035  0.6988706907248436  0.8087508897757131
