Hf O 
 1.0000000000000000
     5.2637371266387865    0.0000007635662474    0.0000915423652633
    -0.0000007318695617    5.0789384542613538    0.0261784128925867
     0.0000989227407346    0.0259720443415076    5.0877533572638205
 Hf  O  
   4   8
Direct
  0.0011661029375526 -0.0055134959747966 -0.0015391443926155
 -0.0277340949735336  0.4843764132945425  0.4966288324443404
  0.4749034098511004 -0.0054940367913371  0.4984493806826966
  0.5037819906171749  0.4843964311316318 -0.0033629526474433
  0.2866724230906418  0.2607833000390107  0.2563383490926563
  0.1893024846214832  0.2607884679451857  0.7563400080935586
  0.1625644287095655  0.7736738615215674  0.2975093269734603
  0.3134532041882513  0.7736889906653467  0.7975132986231435
  0.7858834836050956  0.2311331045839698  0.2464493439961230
  0.6900880017845210  0.2311443656455752  0.7464466834164764
  0.6648228714676772  0.7203864020978180  0.2822892731746438
  0.8111974032605388  0.7203846313820698  0.7822920266912879
