Hf O 
 1.0000000000000000
     5.0796705718004445   -0.0003808945718527    0.0000875939790061
    -0.0003820097038127    5.0819433334086623    0.0681916584314429
     0.0000963830465113    0.0732002251274400    5.2460543609663786
 Hf  O  
   4   8
Direct
 -0.0091451387814762 -0.0123619441738242  0.0264448325161950
 -0.0250667523559544  0.4833093450071699  0.5081055755809201
  0.4797201370963143 -0.0125053820237245  0.5265405780681253
  0.4954766284312908  0.4833927245153581  0.0081513703668177
  0.2252250193967743  0.2565730820643051  0.2106033831531909
  0.2418746236956197  0.2555900568826134  0.7107483271133652
  0.2132521759402906  0.7610625379386723  0.3363315426548856
  0.2538182146209623  0.7600906964550003  0.8361792119322574
  0.7288869621756453  0.2341022810132071  0.3156755407661686
  0.7381673150100452  0.2332361922092961  0.8155891149881774
  0.7239280004823558  0.7355280314410892  0.2120909118774112
  0.7429940009916219  0.7346881315422243  0.7120254565648577
