Hf O 
 1.0000000000000000
     5.1302996741528544    0.0000085651242657    0.0000377643042924
     0.0000082200877359    5.0712497152785598    0.0297549297394330
     0.0000394911200870    0.0310914187147501    5.1320285974189614
 Hf  O  
   4   8
Direct
 -0.0125580340955051 -0.0108991199715676  0.0182865925074208
 -0.0189040422923796  0.4865280562751448  0.5107669962833682
  0.4834341858414556 -0.0109013608768884  0.5182913747359797
  0.4897760753462115  0.4865361765363945  0.0107729998462489
  0.2603792716115256  0.2457455138350760  0.2369845403892402
  0.2104770783941944  0.2457305320704556  0.7369843442312272
  0.1984090942746497  0.7557826028736743  0.3038406640285266
  0.2724546833662405  0.7557696743111596  0.8038393437536481
  0.7620002448673656  0.2357141204844844  0.2910707621367792
  0.7088571990212698  0.2357030998386298  0.7910718870941668
  0.7013736849662466  0.7444176396389364  0.2332795848260743
  0.7694891825460470  0.7444065907669924  0.7332799250067438
