Hf O 
 1.0000000000000000
     5.2703415288502882    0.0000007328093532    0.0000128828247723
     0.0000006448297310    5.0540066919526190    0.0009869046275717
     0.0000130180007356    0.0000882986369887    5.0838885572475272
 Hf  O  
   4   8
Direct
  0.0153498332341635  0.0069924281688079 -0.0156342496181091
 -0.0482192251847853  0.4767066457653876  0.4842711748801373
  0.4518065657114175  0.0069956308052368  0.4843645049396834
  0.5153758095981367  0.4767095729574973 -0.0157275622524078
  0.2569958127628885  0.2765547127571660  0.2332524376764465
  0.2101405829033636  0.2765512046306705  0.7332528301722240
  0.1214429263527508  0.8067710524835406  0.3359388690489631
  0.3456925480687696  0.8067624223004211  0.8359338742998946
  0.7569671467567746  0.2074780638398294  0.2328737877375574
  0.7101693307119439  0.2074812024586958  0.7328741050961115
  0.6215446972939155  0.6773024716079106  0.3355749604043937
  0.8455910610463305  0.6773100792015982  0.8355705337119673
