Hf O 
 1.0000000000000000
     5.3778125604745561    0.0000008082974711    0.0000122321055894
     0.0000008044305665    5.0511767198714583    0.0000011583979451
     0.0000127857069794    0.0000011447679885    5.1036782415183026
 Hf  O  
   4   8
Direct
  0.0469077150936097 -0.0032775054200761  0.0066878734849308
 -0.0208656860680091  0.5160018064888729  0.5066861503886844
  0.4791350600676372 -0.0032747186725174  0.5066870706913306
  0.5469083930875248  0.5160045704159907  0.0066873757837622
  0.3632612065817210  0.2113413075304994  0.1792782830101719
  0.1627804203699833  0.2113416069867076  0.6792788914811503
  0.2139918822366586  0.7399507088758341  0.2719205768379670
  0.3120523794380093  0.7399524346681362  0.7719210339703291
  0.8632620961118427  0.3013934685064674  0.1792760145219328
  0.6627795546353945  0.3013932917247125  0.6792765311331982
  0.7139923349627049  0.7727849417667393  0.2719173082115158
  0.8120518731652653  0.7727833125812650  0.7719176178746012
