Hf O 
 1.0000000000000000
     5.3051231049014058   -0.0000050360024671    0.0000145160792314
    -0.0000048557548415    5.0531101876531865   -0.0000373841733723
     0.0000148535037554   -0.0000376147050071    5.0888681796789292
 Hf  O  
   4   8
Direct
  0.0101818300420242  0.0028622260048712 -0.0062030289589520
 -0.0532142291097379  0.4761155004927489  0.4937979591554604
  0.4467852513385094  0.0028624684780815  0.4937973877620302
  0.5101801021858646  0.4761150204903861 -0.0062025531007191
  0.2612775891727643  0.2683814818310678  0.2398308514616719
  0.1957112651100691  0.2683806273863554  0.7398304967220773
  0.1207954111640273  0.7972928947363173  0.3359322607001172
  0.3361963433676942  0.7972951594823052  0.8359332078447409
  0.7612763707994843  0.2105817542059870  0.2398377476995653
  0.6957123092146573  0.2105826034441122  0.7398377666596381
  0.6207939401047096  0.6816714613557466  0.3359391844326899
  0.8361976331257998  0.6816689283968302  0.8359401868170792
