Hf O 
 1.0000000000000000
     5.3778125604752942    0.0000008082976400    0.0000122321044736
     0.0000008044307284    5.0511767198708286    0.0000011583962758
     0.0000127857058855    0.0000011447663131    5.1036782415183355
 Hf  O  
   4   8
Direct
  0.0208649399323201  0.0032747186732799 -0.0066870706909868
 -0.0469083930878967  0.4839954295847662  0.4933126242149471
  0.4530922849062941  0.0032775054202913  0.4933121265148351
  0.5208656860687575  0.4839981935122812 -0.0066861503886755
  0.2860081177633275  0.2600492911243011  0.2280794231619577
  0.1879476205640433  0.2600475653317993  0.7280789660310126
  0.1367387934183370  0.7886586924700417  0.3207217169896864
  0.3372195796305633  0.7886583930134807  0.8207211085192589
  0.7860076650378803  0.2272150582333074  0.2280826917880465
  0.6879481268347389  0.2272166874193496  0.7280823821257999
  0.6367379038878871  0.6986065314935110  0.3207239854785413
  0.8372204453646108  0.6986067082748374  0.8207234688670184
