Hf O 
 1.0000000000000000
     5.3051231049019494   -0.0000050360029148    0.0000145160803065
    -0.0000048557552731    5.0531101876523064   -0.0000373841726021
     0.0000148535048017   -0.0000376147042331    5.0888681796789959
 Hf  O  
   4   8
Direct
  0.0532147486615234 -0.0028624684776425  0.0062026122378012
 -0.0101801021854305  0.5238849795093973  0.5062025531007478
  0.4898181699575110 -0.0028622260045747  0.5062030289584328
  0.5532142291095807  0.5238844995072591  0.0062020408448474
  0.3792045888359605  0.2027071052644158  0.1640677392998938
  0.1638036566323225  0.2027048405173444  0.6640667921549603
  0.2387224108278708  0.7316185181686902  0.2601691485390369
  0.3042887348898274  0.7316193726138206  0.7601695032773641
  0.8792060598946490  0.3183285386449125  0.1640608155674229
  0.6638023668744211  0.3183310716036848  0.6640598131832551
  0.7387236292004792  0.7894182457938113  0.2601622523007066
  0.8042876907858787  0.7894173965557719  0.7601622333404437
