Hf O 
 1.0000000000000000
     5.4533038049318634    0.0000000334155918    0.0000192947532132
     0.0000000589127993    5.0468426160036710   -0.0000059012440955
     0.0000198480738768   -0.0000058207004267    5.1223398550933412
 Hf  O  
   4   8
Direct
  0.0318351161717043  0.0018869246120265 -0.0036106384736291
 -0.0444927716964236  0.4919307728400054  0.4963877489035536
  0.4555080608215043  0.0018908596754758  0.4963873204170339
  0.5318358723597065  0.4919347284958602 -0.0036102109474235
  0.3100047173130829  0.2478030981998621  0.2140205174663690
  0.1773354879865049  0.2478001424665179  0.7140199515661336
  0.1514250289313212  0.7778166771159355  0.3100532021415345
  0.3359225889589149  0.7778178067938487  0.8100530885435457
  0.8100040070503317  0.2460039296552990  0.2140274246368472
  0.6773361821595623  0.2460068652925395  0.7140268717872941
  0.6514240464600646  0.7159913655253453  0.3100579219215867
  0.8359235711454392  0.7159901794115658  0.8100577755009077
