Hf O 
 1.0000000000000000
     5.4867111928108354    0.0000002536128157    0.0000210292061904
     0.0000002732014632    5.0440241065240325    0.0000002540689518
     0.0000215938376600    0.0000002558560831    5.1316445163308844
 Hf  O  
   4   8
Direct
  0.0404451307904265 -0.0000021175328347  0.0000011458924791
 -0.0404450949861992  0.4999973543212534  0.4999991949947137
  0.4595549523792034  0.0000032224727996  0.4999992755479254
  0.5404450914811072  0.5000023700304921  0.0000009677027330
  0.3314255299303713  0.2345718841103705  0.2006776314980653
  0.1685705936911786  0.2345695827342953  0.7006773752785911
  0.1685744846069992  0.7654280966915675  0.2993223552856248
  0.3314294345296658  0.7654303977789876  0.7993226425771095
  0.8314254452167058  0.2654281091983721  0.2006775727946083
  0.6685706295619754  0.2654304396027461  0.7006773643989196
  0.6685745693210375  0.7345719186583245  0.2993224139836285
  0.8314293986583859  0.7345695885427393  0.7993226534514369
