Hf O 
 1.0000000000000000
     5.4533038049365263    0.0000000334143394    0.0000192947558914
     0.0000000589115593    5.0468426159991902   -0.0000059012357324
     0.0000198480765307   -0.0000058206920793    5.1223398550965076
 Hf  O  
   4   8
Direct
  0.0444919391938844 -0.0018908580967443  0.0036126801362714
 -0.0318358724072543  0.5080652712969003  0.5036102109735449
  0.4681648838408530 -0.0018869230306288  0.5036106390257234
  0.5444927716457085  0.5080692269539386  0.0036122511225485
  0.3485749710904117  0.2221833228784750  0.1899467978395022
  0.1640774110266090  0.2221821932021437  0.6899469114387112
  0.1899952827077684  0.7521969017945406  0.2859794825133474
  0.3226645120006658  0.7521998575277048  0.7859800484162661
  0.8485759535555998  0.2840086344978300  0.1899420780659376
  0.6640764288473435  0.2840098206091480  0.6899422244874336
  0.6899959929674391  0.7539960703670870  0.2859725753510070
  0.8226638178308985  0.7539931347272132  0.7859731282012858
