Hf O 
 1.0000000000000000
     5.3541431274655409   -0.2568762676153588   -0.0294491329210482
    -0.4472925307296327    5.1132362083067573    0.0125764958394583
     0.0643304309326194    0.0026308225993787    5.1139067437617518
 Hf  O  
   4   8
Direct
 -0.0029507720145868 -0.0002156734365525  0.0030189426716988
  0.0477410629899944  0.4593082250790803  0.5001781509879499
  0.4883158913461516 -0.0007543600665549  0.4357971435332149
  0.5575975836983511  0.4689471392355598 -0.0649384247180513
  0.3037296478882965  0.2730433251923392  0.2136756399949589
  0.2391077657867457  0.2073666194990597  0.7177543948915073
  0.1563511493126189  0.7862660991251361  0.2744626691714272
  0.3867756513580336  0.7109420674078847  0.7089638797223209
  0.8051793692162135  0.2587603669653966  0.2156140019114005
  0.7397955287536556  0.1953948730171770  0.7113539435317816
  0.6629082691155113  0.7580430688833061  0.2067086793979161
  0.8927981800211405  0.6796477782202959  0.7721633004916469
