Hf O 
 1.0000000000000000
     5.3266347771714058    0.0198432261041590   -0.0858258048068990
    -0.3048500457299554    5.0772970687913928    0.0318755389903200
     0.0804428089677877   -0.0280317490063667    5.0989968310423794
 Hf  O  
   4   8
Direct
  0.0015373766590707 -0.0018595408258186  0.0000882801494843
 -0.0079051268685165  0.4633029768324111  0.5002632444118741
  0.4667174345816250 -0.0078857552391425  0.4704048104469863
  0.5335336987007144  0.4682459571903166 -0.0296886426570157
  0.2819801634011858  0.2697116912567487  0.2340019116497915
  0.2178777536588854  0.2301401684323718  0.7356836955735446
  0.1341295166373093  0.7925749209623260  0.3107866358570426
  0.3592799477668542  0.7448301044057478  0.7733299904838498
  0.7836022098844894  0.2304130773477273  0.2364433076680509
  0.7199885468789995  0.1899473555616248  0.7346991309276829
  0.6420818278727839  0.7150322644776280  0.2738123606288252
  0.8667059981012886  0.6674809514232609  0.8115875661777230
