Hf O 
 1.0000000000000000
     5.3549406909637911   -0.3429650297564467   -0.0211552485845234
    -0.5070073692347287    5.1304218241983772   -0.0028560082587692
     0.0307404587316892    0.0126348236104454    5.1273690311729032
 Hf  O  
   4   8
Direct
 -0.0010297675675649 -0.0008960754410032  0.0012877903847402
  0.0698324190058018  0.4565353740308289  0.5000117221089074
  0.4974174528318548 -0.0000548519766378  0.4214792618711149
  0.5718845201919951  0.4597409119087545 -0.0787407790880816
  0.3131827315158607  0.2725093045831806  0.2057884552334957
  0.2538032996340508  0.1912970879511528  0.7117333202069057
  0.1614725845636917  0.7827426225289790  0.2643483214536207
  0.4057745339102546  0.6881482519506277  0.6762425441046203
  0.8136892916465783  0.2663229267576597  0.2110968627712320
  0.7539970956709182  0.1869527273970386  0.7050177805487015
  0.6656571392119325  0.7703436658062354  0.1766399939259462
  0.9103405809636632  0.6752815293428807  0.7642086831173759
