Hf O 
 1.0000000000000000
     5.2706291418020399    0.1801398881354401   -0.1021018188113511
    -0.1735049264641753    5.0566903380837029    0.0438204913455158
     0.0955139714663076   -0.0458044529977797    5.0846938336478251
 Hf  O  
   4   8
Direct
  0.0011112088680506 -0.0007189426896254 -0.0003289853561817
 -0.0539362160732767  0.4712825663486470  0.5002587175777871
  0.4405705135966059 -0.0068285855585360  0.4988286066245858
  0.5060172716618874  0.4696482890938947 -0.0016810457782578
  0.2500918792305020  0.2718578313113522  0.2501489256999305
  0.1969936045209945  0.2628195055555925  0.7498781240276871
  0.1105233425795458  0.8006993077860042  0.3457181982853524
  0.3299524281516383  0.7895050925263570  0.8389576975385500
  0.7508733195858019  0.2082495177225501  0.2495886626070589
  0.6978606793765120  0.1971301896856868  0.7499195645299835
  0.6156958179884346  0.6800450418447469  0.3389371264303203
  0.8347363625095565  0.6695946824903696  0.8457192668976770
