Hf O 
 1.0000000000000000
     5.3460508531289381   -0.1953525038669999   -0.0020829338808295
    -0.6780946611302449    5.1121054348056703   -0.0082637620212101
     0.0006551804956343    0.0107957168586995    5.1597428531510197
 Hf  O  
   4   8
Direct
 -0.0001929156527280 -0.0014871918708200  0.0010904697775386
  0.0795691594690494  0.4504641075475690  0.5009937176130234
  0.4993675410696955 -0.0103360269765820  0.4184873027526336
  0.5800591074608684  0.4502788447202275 -0.0811916107187056
  0.3143272614027645  0.2729380257399400  0.2034166051835667
  0.2641168164331026  0.1806838633299998  0.7136746131621825
  0.1506304892434341  0.7871781935302887  0.2780577553271333
  0.4267514671827073  0.6707106796723419  0.6541703930479246
  0.8142038409165567  0.2677992489499921  0.2141822573137145
  0.7639646350037030  0.1759186572893816  0.7039661111321567
  0.6542842580903231  0.7771666258222865  0.1544015721948828
  0.9302200706583612  0.6614955701987877  0.7786924444977339
