Hf O 
 1.0000000000000000
     5.3466825284470900   -0.1119847702417356   -0.0452449281124957
    -0.3829600065613227    5.0922612786245010    0.0191839748298868
     0.0685803785006755   -0.0100869319802531    5.1076105631081177
 Hf  O  
   4   8
Direct
 -0.0022066874223029 -0.0011850608618572  0.0019994802750621
  0.0307364018135535  0.4592194326877863  0.5005201323883626
  0.4776081274004445 -0.0055772648495115  0.4534516936723106
  0.5458909306630445  0.4687439461014681 -0.0467842206086754
  0.2914345112472396  0.2711709147444997  0.2237413897158615
  0.2286663900748218  0.2186718047259171  0.7274096922195288
  0.1431996202132724  0.7905251276053382  0.2951274898950554
  0.3741922962639633  0.7287451617228485  0.7429023057955488
  0.7933352095447811  0.2433605798087894  0.2261963534061555
  0.7299381955834483  0.1919156171704120  0.7225782791058695
  0.6499440797652986  0.7352493453452835  0.2410469513708645
  0.8810346893807047  0.6713980124597491  0.7935097107187388
