Hf O 
 1.0000000000000000
     5.2922800153004479    0.1408701805965453   -0.1209484845911186
    -0.2179156723322530    5.0664190453668043    0.0483698487047276
     0.1099657573446397   -0.0570507830543440    5.0884933925263942
 Hf  O  
   4   8
Direct
  0.0028349305297475 -0.0024112202828335 -0.0012016432473479
 -0.0280824885358075  0.4703687518699908  0.5001025467931655
  0.4540419354658556 -0.0046919119974576  0.4888253537948397
  0.5192568541448771  0.4710616171660392 -0.0113173563345171
  0.2689468507442315  0.2711430550079606  0.2457095245581391
  0.2051883885230044  0.2474047911304066  0.7457553877191396
  0.1244943885503468  0.7964705549180680  0.3279439139405357
  0.3383396100802394  0.7685471119590603  0.8089796939510230
  0.7706571246144106  0.2199089831613407  0.2464460593107812
  0.7066485375171365  0.1937405831451994  0.7465306679383031
  0.6326894370324675  0.6972835210422842  0.3099430258595122
  0.8469548627401317  0.6698477826862428  0.8288936176061805
