Hf O 
 1.0000000000000000
     5.2914507350807227   -0.0000000000000000   -0.0000000000000051
     0.0000000000000000    5.1266087975855772    0.0000000000000000
    -0.0000121936462094    0.0000011484024403    5.0295646566548804
 Hf  O  
   4   8
Direct
 -0.0003766887446532 -0.0000325110749943  0.9995438820770232
  0.4996243853636284  0.0650437287680166  0.5322442930847018
  0.4996240236829300  0.5650436419933299 -0.0004574569230531
  0.9996234105135720  0.4999678085008741  0.5322426768547286
  0.1449978021950503  0.1684668251293327  0.3340108425842529
  0.6449969358045006  0.3965513102056022  0.3340132938815232
  0.2502389824792092  0.2984752575571478  0.8048246287578577
  0.7502386102447309  0.2665356259810565  0.8048231950550808
  0.1449981982210664  0.6684665830767321  0.1977743737550273
  0.6449978773216078  0.8965509847911315  0.1977715869898140
  0.2502397838366887  0.7984757791247877  0.7269603855025196
  0.7502391904880044  0.7665362395032725  0.7269616938416549
