Hf O 
 1.0000000000000000
     5.3122490639235131    0.0399964560732996   -0.0714731926038167
    -0.2698744194881054    5.0809679273499846    0.0225770416174210
     0.0682477626535576   -0.0189572393096325    5.0908451994322768
 Hf  O  
   4   8
Direct
  0.0062672220244770 -0.0097277342910122 -0.0054398409131824
  0.0045016341742066  0.4687500300553785  0.4945481997310731
  0.4770401210755336 -0.0104559930619425  0.4705870374762711
  0.5337619481990834  0.4693727088194528 -0.0293598836462398
  0.2965107475460853  0.2620691899132466  0.2340654385248546
  0.2130646130649218  0.2269939194948417  0.7324479508258052
  0.1590967507470642  0.7780076104431123  0.2897298987940733
  0.3455839479381177  0.7387767241810816  0.7655141288749419
  0.7976290448588349  0.2316952438630842  0.2326808612888921
  0.7141808287853723  0.1967430272118567  0.7342737765262614
  0.6652964346886272  0.7198872044391240  0.2657504962166988
  0.8518195803119373  0.6807864287287195  0.7899258016964773
