Hf O 
 1.0000000000000000
     5.2693310909577642    0.1786532708546553   -0.1049032798833926
    -0.1751625253848460    5.0567933256868969    0.0458627281808165
     0.0945647064992780   -0.0446590690126591    5.0857546712348052
 Hf  O  
   4   8
Direct
  0.0027427492222687 -0.0014336227136393 -0.0013133407978300
 -0.0543656253864595  0.4710806026503026  0.4990117229562169
  0.4420147059797949 -0.0012002953287343  0.4982684348688837
  0.5063665734355322  0.4689566103014797 -0.0022475469886721
  0.2511576318395721  0.2697116716663964  0.2488739388095851
  0.1978150791041434  0.2635747771235672  0.7483680681900995
  0.1127964066860186  0.7989991893321442  0.3450609894652189
  0.3310962147157764  0.7909058965635544  0.8408103887776764
  0.7516512037808883  0.2060765854269744  0.2476375043527274
  0.6982836217762310  0.1980657819449244  0.7481392424635099
  0.6167193318542261  0.6772871712455414  0.3403254661600405
  0.8343722094057791  0.6702961580117214  0.8447550376040515
