Hf O 
 1.0000000000000000
     5.2872699668758782    0.1429320676097554   -0.1170752772069521
    -0.2120479256864688    5.0667274747491957    0.0481113553743527
     0.1055399985751693   -0.0513910038351978    5.0891863602490623
 Hf  O  
   4   8
Direct
  0.0076050878831076 -0.0036275533548697 -0.0044726770541105
 -0.0301347249101603  0.4707210660339530  0.4962170870128125
  0.4568020574295068 -0.0046950328570587  0.4878637710335084
  0.5199628032912321  0.4701190541544364 -0.0123691457099122
  0.2707807959178795  0.2691093058411696  0.2431290197283583
  0.2058848878422720  0.2488221505380193  0.7421346842459334
  0.1291039235445748  0.7946203519994373  0.3257655638613531
  0.3389864977989808  0.7712225484338049  0.8110634648532022
  0.7721355965196814  0.2175978629353174  0.2424908680379000
  0.7071599201069489  0.1954146889680818  0.7437962648114379
  0.6363785779936552  0.6938642379675025  0.3120059521768520
  0.8464748157290706  0.6710525939839787  0.8264532243379684
