Hf O 
 1.0000000000000000
     5.3240732008917524    0.0286558598319609   -0.0851248508655736
    -0.2944774777503553    5.0762804744799581    0.0329756345944767
     0.0777858983675002   -0.0245678126136047    5.0983795258881281
 Hf  O  
   4   8
Direct
  0.0025708736151855 -0.0030876263112111 -0.0014089172242825
 -0.0014092952310139  0.4640645419777588  0.4985500759731608
  0.4681949901156969 -0.0087195038230228  0.4708225413184395
  0.5329585609975424  0.4683361449592001 -0.0289315793068873
  0.2831816508186735  0.2682006620677048  0.2336509497705456
  0.2156475856162776  0.2304838445308780  0.7340667998198748
  0.1380669132151665  0.7902396571510250  0.3082628981234898
  0.3560868659169514  0.7460323315897478  0.7745247475137795
  0.7848545550897318  0.2295440189434405  0.2345828884918355
  0.7173994003405159  0.1917784697461101  0.7340900529844812
  0.6460646858091718  0.7141794851692005  0.2751471453774341
  0.8636560272523013  0.6696116802874815  0.8089508277514034
