Hf O 
 1.0000000000000000
     5.3554002636602744   -0.2481065401790283   -0.0359623343839743
    -0.4511374494820513    5.1144507364123442    0.0110738105367330
     0.0615553408513627   -0.0019701775489949    5.1138403571952002
 Hf  O  
   4   8
Direct
 -0.0078397110816639  0.0002564566873401  0.0070356179961748
  0.0499088542147344  0.4613102463058609  0.5054687241877714
  0.4863302700250671 -0.0001419334484131  0.4386947237015951
  0.5559400702979085  0.4670343528161995 -0.0620055182057396
  0.3033451020380565  0.2731786439797638  0.2180453501908036
  0.2376694358656677  0.2039772491040841  0.7225433869126132
  0.1551380780704166  0.7855891920945113  0.2747391803001146
  0.3835181112167358  0.7042654975394668  0.7052479103260514
  0.8041731411088018  0.2615069528256789  0.2212145057606104
  0.7380834973658004  0.1934097656667389  0.7162436499290596
  0.6605359622201665  0.7627177190547253  0.2037914191043197
  0.8890452572819925  0.6797647554416349  0.7736941553377598
