Hf O 
 1.0000000000000000
     5.3468752697432587   -0.1108253554195514   -0.0512666638587275
    -0.3871681918801719    5.0949645815748310    0.0194914491525638
     0.0680584396387280   -0.0129677848116477    5.1056240980672492
 Hf  O  
   4   8
Direct
 -0.0052605103577373 -0.0017184818797023  0.0054191734590377
  0.0258644287070494  0.4608607571589123  0.5044142617859516
  0.4770781056435868 -0.0051800029505374  0.4558254035558565
  0.5441159723042803  0.4680839522192715 -0.0447670843089372
  0.2933101475136529  0.2706966035684250  0.2272041468615417
  0.2268751314359034  0.2160046345723623  0.7307375164068437
  0.1451817340037107  0.7889301933677447  0.2933303574726985
  0.3701174261826360  0.7232048147910762  0.7400809569635134
  0.7945558296011402  0.2460167888986378  0.2299161811702289
  0.7282718819383009  0.1915035841486185  0.7262382825131933
  0.6521504021778516  0.7397880003572262  0.2383343209086460
  0.8768269812376757  0.6729356693010415  0.7922452931188730
