Hf O 
 1.0000000000000000
     5.3473157459487490   -0.1962488169667678   -0.0045249469873297
    -0.6692584577228708    5.1133040960447502   -0.0102910303147098
     0.0001548944742528    0.0086876927329427    5.1566906270889810
 Hf  O  
   4   8
Direct
 -0.0006271818303012 -0.0023515842944484  0.0015354001376861
  0.0795638936043492  0.4504285041367385  0.5020378216471114
  0.4987163118152328 -0.0024230362684283  0.4194022890524424
  0.5802774061612919  0.4497239050988890 -0.0800934180518807
  0.3149519465100131  0.2718938218200099  0.2050559182401684
  0.2639392194137452  0.1781970581912316  0.7150869720475476
  0.1510351425186246  0.7856350420727239  0.2768754816320292
  0.4264880723025368  0.6666929247089631  0.6518851247197818
  0.8147283832564316  0.2693257358372184  0.2153414236286992
  0.7638564735180328  0.1754397948546829  0.7050747383534600
  0.6534852151269360  0.7802961393673957  0.1515659429413813
  0.9288320087851198  0.6620636501515198  0.7769123442811831
