Hf O 
 1.0000000000000000
     5.3568654088396546   -0.3344654259711525   -0.0235866174270726
    -0.5016038415406967    5.1311567691709801   -0.0032456264621797
     0.0328569756720565    0.0096703829630046    5.1263240183613830
 Hf  O  
   4   8
Direct
 -0.0032118721211538  0.0000916370562930  0.0026696499637455
  0.0699344861132873  0.4576757375515259  0.5020183088059890
  0.4958895090812218  0.0004291035117875  0.4236472079365908
  0.5708648861332539  0.4593579678392775 -0.0765200011646259
  0.3128686711997664  0.2731278545554877  0.2084726089220879
  0.2529590711063605  0.1896563777645818  0.7144728285073306
  0.1602824498910693  0.7828850403498342  0.2643857152599694
  0.4048485723963128  0.6845737900586749  0.6735451962951082
  0.8131450523987864  0.2689433479158752  0.2142132591148838
  0.7530920676672209  0.1865206358975563  0.7080200162845268
  0.6629255380455409  0.7743510924557505  0.1739753765954242
  0.9079116660767996  0.6760207266204740  0.7646425727654749
