Hf O
 1.0000000000000000
     5.3220660000000004    0.0008530000000000    0.0000000000000000
    -0.8641450000000001    5.0643419999999999    0.0000000000000000
    -0.0000020000000000    0.0000020000000000    5.1892709999999997
 Hf  O
   4   8
Direct
  0.0002500000000000  0.9982900000000005  0.0010630000000004
  0.0844309999999999  0.4464190000000002  0.5010630000000003
  0.5002500000000000  0.9982900000000007  0.4157600000000002
  0.5844309999999999  0.4464190000000003  0.9157600000000005
  0.3147970000000000  0.2735380000000003  0.2010980000000002
  0.2698800000000000  0.1711720000000003  0.7157210000000003
  0.1398670000000000  0.7899530000000005  0.2879570000000004
  0.4448220000000001  0.6547540000000003  0.6288620000000004
  0.8147969999999999  0.2735380000000003  0.2157250000000002
  0.7698799999999999  0.1711710000000003  0.7011020000000003
  0.6398670000000002  0.7899530000000005  0.1288670000000002
  0.9448209999999999  0.6547540000000001  0.7879610000000005
