Hf O
 1.0000000000000000
     5.2657330000000000    0.0000000000000000    0.0000000000000000
     0.0000000000000000    5.0464770000000003    0.0000050000000000
     0.0000000000000000    0.0000050000000000    5.0769200000000003
 Hf  O
   4   8
Direct
  0.0000000000000000  0.0000000000000002  0.0000000000000000
  0.9340920000000000  0.4668430000000003  0.4999990000000002
  0.4341040000000000  0.0000000000000002  0.5000000000000003
  0.5000120000000000  0.4668430000000003  0.9999990000000003
  0.2368660000000000  0.2709750000000003  0.2498760000000003
  0.1972380000000000  0.2709750000000003  0.7498760000000003
  0.1017490000000000  0.8013470000000004  0.3569400000000004
  0.3323550000000000  0.8013470000000004  0.8569400000000003
  0.7368700000000000  0.1958660000000003  0.2498930000000004
  0.6972340000000000  0.1958660000000003  0.7498930000000005
  0.6017400000000001  0.6654940000000004  0.3569400000000004
  0.8323630000000001  0.6654940000000004  0.8569400000000003
