Hf O 
 1.0000000000000000
     5.2841930611902628    0.0000032313908228   -0.0000167784105638
     0.0000030399867349    5.0546005441896691    0.0000058678772944
    -0.0000154737102657    0.0000058962368201    5.0863981622177272
 Hf  O  
   4   8
Direct
  0.0494809037272816 -0.0057669882261364  0.0126245532285927
 -0.0140789302997414  0.5230731043809344  0.5126224214073868
  0.4859216304935852 -0.0057671810329815  0.5126230831340438
  0.5494809524679248  0.5230732722025937  0.0126228431570574
  0.3777469805879531  0.1969428215846168  0.1650273615836021
  0.1576578790108968  0.1969402897084722  0.6650267815188327
  0.2403302908611231  0.7267238107266842  0.2650949355497859
  0.2950882685782133  0.7267264192968220  0.7650940776594851
  0.8777498556250805  0.3203715845020002  0.1650225456178152
  0.6576550292890846  0.3203734522471341  0.6650218460283455
  0.7403295495988161  0.7905904386409628  0.2650850381879762
  0.7950888972062823  0.7905878707505851  0.7650848400292876
