Hf O 
 1.0000000000000000
     5.6343075959878961    0.0000008472335663    0.0000333171187863
     0.0000014759044726    4.9955266426196268   -0.0000002200579251
     0.0000337234002238   -0.0000002294063610    5.1833592775792745
 Hf  O  
   4   8
Direct
  0.0585692632066384 -0.0000073335978519  0.0000016362035421
 -0.0585687768511215  0.4999921939571830  0.4999976338692721
  0.4414312899022522 -0.0000020738566323  0.4999991188341179
  0.5585692465018167  0.4999985978957339  0.0000018570576059
  0.3461540608856288  0.2279292265653942  0.1818950044514876
  0.1538388452734918  0.2279242090355499  0.6818942405762799
  0.1538475722048057  0.7720637888292309  0.3181065336788712
  0.3461606681587852  0.7720686769640405  0.8181066252838143
  0.8461543771172028  0.2720643318446205  0.1818930371464575
  0.6538399193290696  0.2720696425283269  0.6818929264439485
  0.6538465136032386  0.7279299685044970  0.3181047447723098
  0.8461604345179515  0.7279249657725604  0.8181053286213693
