Hf O 
 1.0000000000000000
     5.3770320598598111    0.0000028136116737    0.0000389839915521
     0.0000027685225054    5.0485418213963253   -0.0000218724002269
     0.0000390911639550   -0.0000218299278511    5.1034797582162605
 Hf  O  
   4   8
Direct
  0.0268507913839561  0.0063937685861067 -0.0132380271162403
 -0.0448715801230211  0.4847974595514035  0.4867596216811270
  0.4551280455711236  0.0064003144346974  0.4867591364454277
  0.5268511004992898  0.4848038387978500 -0.0132368480545098
  0.2872023469698746  0.2639485494704918  0.2206641476826466
  0.1947703186769014  0.2639439431898683  0.7206632522632030
  0.1364982529481366  0.7954806229612972  0.3217094904742712
  0.3454851759619069  0.7954814493795227  0.8217089672003351
  0.7872006690289434  0.2272350606847442  0.2206780935974082
  0.6947720689401327  0.2272395207207020  0.7206769103394356
  0.6364959705675733  0.6957058175687352  0.3217163970881405
  0.8454874432964684  0.6957045592394988  0.8217161708565097
