Hf O 
 1.0000000000000000
     5.3770320670029585    0.0000028144769979    0.0000389833716238
     0.0000027693814811    5.0485418215766256   -0.0000218719033309
     0.0000390905505415   -0.0000218294280552    5.1034797601387689
 Hf  O  
   4   8
Direct
  0.0448719552096503 -0.0064002922793504  0.0132408609058979
 -0.0268511019888404  0.5151961825891680  0.5132368495263984
  0.4731492073492106 -0.0063937464308798  0.5132380249214747
  0.5448715783803953  0.5152025615953764  0.0132403800071353
  0.3635017479577947  0.2045193921505421  0.1782905027454876
  0.1545148222336631  0.2045185673029543  0.6782910261899556
  0.2127976519503869  0.7360514658017180  0.2793358444577418
  0.3052296809962466  0.7360560737324775  0.7793367401831870
  0.8635040250629837  0.3042941939919219  0.1782836120348766
  0.6545125583617241  0.3042954553677102  0.6782838373636043
  0.7127993265464524  0.7727649502753994  0.2793219174436077
  0.8052279328216775  0.7727604937383041  0.7793230997874783
