Hf O 
 1.0000000000000000
     5.2841930609106376    0.0000032313808435   -0.0000167783970207
     0.0000030399767802    5.0546005441949289    0.0000058678256058
    -0.0000154736967952    0.0000058961850374    5.0863981621771748
 Hf  O  
   4   8
Direct
  0.0140783694822405  0.0057671813640830 -0.0126230831182957
 -0.0494809525000332  0.4769267281068781  0.4873771568884468
  0.4505190962807510  0.0057669885598058  0.4873754467778627
  0.5140789302574272  0.4769268959321647 -0.0126224213646741
  0.2596697090709055  0.2732761895145935  0.2349050643909026
  0.2049117314453176  0.2732735809683948  0.7349059222776615
  0.1222530194141802  0.8030571786506497  0.3349726383792842
  0.3423421209536688  0.8030597105500636  0.8349732184386414
  0.7596704502909198  0.2094095614928177  0.2349149620204921
  0.7049111028416206  0.2094121294380465  0.7349151601765497
  0.6222501442803140  0.6796284156408745  0.3349774545661865
  0.8423449707411410  0.6796265479417408  0.8349781541502617
