Hf O 
 1.0000000000000000
     5.5168050848633454    0.0000005879159605    0.0000292553655954
     0.0000006242997256    5.0286138483414433   -0.0000867904815153
     0.0000297081241386   -0.0000866885693666    5.1413001497091946
 Hf  O  
   4   8
Direct
  0.0534729103515215 -0.0029832794072421  0.0054504365854835
 -0.0410185640239947  0.5090698070435835  0.5054488726041512
  0.4589750255625603 -0.0029779355446972  0.5054470795826578
  0.5534665017344791  0.5090754205806474  0.0054524997960097
  0.3590050488217409  0.2141975398651590  0.1779070182846409
  0.1534401061950616  0.2141934143560938  0.6779063499730174
  0.1863436385819749  0.7523894149839810  0.2965055799241145
  0.3261165711456295  0.7523940588086313  0.7965063127034813
  0.8590024069457558  0.2918900963381970  0.1779006415016859
  0.6534426572896338  0.2918942593909128  0.6779000710308138
  0.6863451322244861  0.7536943736891766  0.2965155852929781
  0.8261150334456576  0.7536894749678997  0.7965163195429299
