Hf O 
 1.0000000000000000
     5.5168051460975738    0.0000005769915647    0.0000292602086416
     0.0000006133560604    5.0286138271784884   -0.0000867604357331
     0.0000297129345674   -0.0000866587883371    5.1413001608764493
 Hf  O  
   4   8
Direct
  0.0410249555087702  0.0029783806248495 -0.0054471358312837
 -0.0534665446396297  0.4909250125546845  0.4945475501239120
  0.4465270772565511  0.0029837226499045  0.4945495034198282
  0.5410185556947279  0.4909306291814565 -0.0054488247433902
  0.3136563507960679  0.2476108860545931  0.2034942502012026
  0.1738834074989773  0.2476062680457322  0.7034935385983950
  0.1409949363167413  0.7858027678291845  0.3220928468385358
  0.3465598815186876  0.7858069188716690  0.8220935360639317
  0.8136548210841913  0.2463058924418897  0.2034845886583732
  0.6738849647626239  0.2463108324859327  0.7034838254173320
  0.6409975267982979  0.7081101700353281  0.3220995270867689
  0.8465573604910538  0.7081060437599108  0.8221000677807938
