&CONTROL
   calculation      = 'scf'
   tstress          = .true.
   tprnfor          = .true.
   outdir           = './qe_tmp'
   prefix           = 'varneb_gan_pd04'
   disk_io          = 'none'
   pseudo_dir       = '/public/home/iai806/abacus/agent-runs/20260921-varneb-material/pseudopotentials/PseudoDojo-NC-SR-PBE-v0.4-standard'
/
&SYSTEM
   ecutwfc          = 100
   ecutrho          = 600
   occupations      = 'fixed'
   ntyp             = 2
   nat              = 4
   ibrav            = 0
/
&ELECTRONS
   conv_thr         = 1e-09
   mixing_beta      = 0.3
/
&IONS
/
&CELL
/
&FCP
/
&RISM
/
ATOMIC_SPECIES
Ga 69.723 Ga.upf
N 14.007 N.upf

K_POINTS automatic
4 4 3  0 0 0

CELL_PARAMETERS angstrom
1.80483634860769 -2.17433624253690 -0.00000000789268
1.80483634860769 2.17433624253690 0.00000000789268
0.00000000000000 0.00000001453368 4.66315738053199

ATOMIC_POSITIONS angstrom
Ga 1.8048363486 -0.6752080743 2.4299470577  
Ga 1.8048363486 1.0824247828 4.7615252104  
N 1.8048363486 -0.8030300714 4.3059998874  
N 1.8048363486 1.2102459932 1.9744212978  

