Hf O 
 1.0000000000000000
     5.3552932010376413   -0.2495645973513694   -0.0343574660946993
    -0.4497186874071722    5.1143356330423462    0.0113380585775845
     0.0622656757265919   -0.0009747701905144    5.1137686385167491
 Hf  O  
   4   8
Direct
 -0.0068024940316673  0.0002062301399162  0.0061200674761019
  0.0495927179030127  0.4609020153176664  0.5043114545315430
  0.4867456661713686 -0.0002385151274165  0.4380551035320977
  0.5563296570329762  0.4674237475005219 -0.0626811590170514
  0.3034724100865795  0.2731178654179670  0.2170468266294899
  0.2380181816713363  0.2047454363509142  0.7214717765932155
  0.1554461239425494  0.7857427171829066  0.2746283741033719
  0.3842071992292072  0.7057663980298978  0.7060194489019983
  0.8044167094840627  0.2608509296560996  0.2199754073126064
  0.7384694450922654  0.1938384773935698  0.7150962133919323
  0.6611066463651658  0.7616605484853466  0.2043670886679179
  0.8898499794210173  0.6797415279922741  0.7733595863812504
