Hf O 
 1.0000000000000000
     5.2695514927741636    0.1785787366069641   -0.1046690541191146
    -0.1752128319386739    5.0573769745106469    0.0456564236481776
     0.0944278451773145   -0.0447124283634201    5.0857327442791913
 Hf  O  
   4   8
Direct
  0.0022915196172413 -0.0009438141387355 -0.0011228750670476
 -0.0542044706355116  0.4707662237260778  0.4993553083090288
  0.4416217669591857 -0.0014031772626219  0.4985312114502346
  0.5062446488787833  0.4686404036399531 -0.0021617403149351
  0.2510155811225358  0.2700557080238489  0.2492302756267996
  0.1975833012210945  0.2634152580560503  0.7486925402732949
  0.1122969954315175  0.7993120989533382  0.3451990559774440
  0.3308058953413558  0.7905116813015970  0.8404948924355946
  0.7515236403099076  0.2065540158440503  0.2480209152474670
  0.6980857491766275  0.1978037017686608  0.7484790065227201
  0.6166902456700807  0.6776271292177518  0.3399027187330012
  0.8343830935911861  0.6702095369041932  0.8449705981924741
