Hf O 
 1.0000000000000000
     5.3471942855017565   -0.1955201893436056   -0.0043497947981748
    -0.6711158160453394    5.1140355698326267   -0.0101652065923740
    -0.0000985183941544    0.0088551405548953    5.1575176073070415
 Hf  O  
   4   8
Direct
 -0.0004292130905475 -0.0018215862723811  0.0013055522995054
  0.0794125437500677  0.4500406655573127  0.5017741637607573
  0.4986261077450102 -0.0027835381540912  0.4191946670287431
  0.5803461950526169  0.4492497293645996 -0.0802470549153612
  0.3148993436866902  0.2720057138335349  0.2047721664856118
  0.2639742675380004  0.1787370522614696  0.7148304354755041
  0.1509364702271305  0.7858389870214516  0.2771312103515705
  0.4265246131273893  0.6672584313703560  0.6525707727071872
  0.8146679694121476  0.2689816752021186  0.2151120770790269
  0.7638750852553564  0.1754881775626103  0.7048463422344003
  0.6538294882917247  0.7794018744795019  0.1519341543242184
  0.9291266641019970  0.6619859951425434  0.7772435697108819
