Hf O 
 1.0000000000000000
     5.3470141817227095   -0.1115415880271586   -0.0495707762681836
    -0.3865290143852786    5.0948823011289228    0.0184499845808852
     0.0684023429977403   -0.0132031903457209    5.1059520062365040
 Hf  O  
   4   8
Direct
 -0.0048367831793029 -0.0015954842536222  0.0045869344904460
  0.0260355851436376  0.4606184841438571  0.5035954685715899
  0.4774848327943924 -0.0051243082529612  0.4552487695925376
  0.5448790403557990  0.4681859721234979 -0.0452954272883862
  0.2930273277323401  0.2707869312343844  0.2263736872984156
  0.2275891562163926  0.2164220978983020  0.7301371287686717
  0.1448927965852393  0.7894186278691975  0.2936190008040664
  0.3709920487694779  0.7243372343282137  0.7405888765499258
  0.7944869184121598  0.2455077563370022  0.2291671373806232
  0.7287675901981798  0.1915696092367770  0.7253488452432112
  0.6516549103580557  0.7388011203972042  0.2387358537532073
  0.8779187542768321  0.6724992059410656  0.7923960086847123
