Hf O 
 1.0000000000000000
     5.3565714008286216   -0.3360123622184695   -0.0229182767559615
    -0.5024495890854749    5.1311764993908824   -0.0031820896170789
     0.0325434970572466    0.0102884095378499    5.1264042018750118
 Hf  O  
   4   8
Direct
 -0.0027371845766479 -0.0000932478803635  0.0023415091715714
  0.0699253823894363  0.4574476012271601  0.5015793048365043
  0.4962219704706656  0.0002911108507735  0.4231886080498470
  0.5710700007980621  0.4594461191998789 -0.0769811092192309
  0.3129651310144627  0.2729764930083601  0.2078856980275985
  0.2531583638542194  0.1900221324370729  0.7138691783853569
  0.1605970791471931  0.7828370028001137  0.2643264684168901
  0.4050076546326837  0.6853745685866860  0.6741183330736417
  0.8132828103167372  0.2683594017756862  0.2135335767481628
  0.7533012124906083  0.1866365704647651  0.7073690592170716
  0.6635362901305525  0.7734734084479029  0.1745679691864739
  0.9083656701246925  0.6758888728992809  0.7645303846872608
