Hf O 
 1.0000000000000000
     5.2883010070933745    0.1420694503848720   -0.1180565234834398
    -0.2137856785783710    5.0669161849792888    0.0482420322240566
     0.1064841914624668   -0.0526437691679572    5.0891517708511520
 Hf  O  
   4   8
Direct
  0.0066026464145175 -0.0033268867099321 -0.0037260249568793
 -0.0298114721885947  0.4706237225971970  0.4970636558558332
  0.4562349405767095 -0.0045841285853501  0.4881337893419255
  0.5197676497312106  0.4702219665843336 -0.0120985241344110
  0.2703754538060401  0.2695514880748834  0.2437361729940556
  0.2056932272292952  0.2484882937329280  0.7429227923763598
  0.1281112510600220  0.7950596979569652  0.3262686132370066
  0.3387921980732475  0.7706072569686250  0.8106318408184363
  0.7717917750872494  0.2181645158349489  0.2433337636462920
  0.7070005528503347  0.1950420490070174  0.7444408179931220
  0.6355991171852748  0.6946281655276169  0.3115910027071661
  0.8465394591647694  0.6707733531642086  0.8270031324048576
