Hf O 
 1.0000000000000000
     5.3247103242756992    0.0269010652645527   -0.0854983555980837
    -0.2965794417630815    5.0764287534507657    0.0339550936871509
     0.0781180525353176   -0.0241160653270671    5.0990120607028899
 Hf  O  
   4   8
Direct
  0.0026433847785235 -0.0026902066783528 -0.0009890898329925
 -0.0017975776970508  0.4638408100241226  0.4988577924694704
  0.4675205778775252 -0.0085068053278743  0.4707807987978788
  0.5326777146814623  0.4682278119350174 -0.0290733901881890
  0.2828891589038263  0.2685253714044289  0.2337480791009639
  0.2158935946696877  0.2305061122218361  0.7342489604330812
  0.1370558269111281  0.7906333590025767  0.3089201333924748
  0.3568877049289846  0.7458222660658338  0.7742696775513765
  0.7843325515328163  0.2296375486688485  0.2348087670447811
  0.7178953889446353  0.1913916529206475  0.7342330552779530
  0.6453215515163481  0.7143534986592318  0.2749198813973966
  0.8641819371622789  0.6692048932365757  0.8096659286003224
