Hf O 
 1.0000000000000000
     5.3342533644738817    0.0000003420831083    0.0000106057464690
     0.0000003452814816    5.0788030835882747   -0.0000000460233092
     0.0000110668489453   -0.0000000589192505    5.1088812926548606
 Hf  O  
   4   8
Direct
  0.0338369984887774 -0.0000003724237730  0.0000005389896847
 -0.0338369175160362  0.4999994349533946  0.4999992794085810
  0.4661630015112223  0.0000003724237729  0.4999994610103143
  0.5338369175160353  0.5000005650466067  0.0000007205914181
  0.3194813040392804  0.2337296925805291  0.1992164885419619
  0.1805156420885205  0.2337283158919548  0.6992159425325816
  0.1805186959607178  0.7662703074194744  0.3007835114580390
  0.3194843579114803  0.7662716841080487  0.8007840574674175
  0.8194815605733957  0.2662703026460411  0.1992166147716196
  0.6805153346489387  0.2662718128828805  0.6992159638317836
  0.6805184394266027  0.7337296973539599  0.3007833852283811
  0.8194846653510622  0.7337281871171200  0.8007840361682157
