Hf O 
 1.0000000000000000
     5.2890847849442730    0.0000003998068225    0.0000107734526171
     0.0000003989685949    5.0609222198002746   -0.0000039540044566
     0.0000111672413339   -0.0000039905087699    5.0910422809103792
 Hf  O  
   4   8
Direct
  0.0565012757770812 -0.0013405260349971  0.0012724902770717
 -0.0085452932032877  0.5247829244974069  0.5012716788686147
  0.4914549020923348 -0.0013402190863368  0.5012718687744484
  0.5565014093516267  0.5247835149445718  0.0012725821010308
  0.3778933678233348  0.2062888927868156  0.1579717313204347
  0.1700572340196597  0.2062868702557409  0.6579707697882208
  0.2412910582822601  0.7378344805621525  0.2632057209832029
  0.3066673027964289  0.7378354715981262  0.7632059012472960
  0.8778936155975779  0.3171577529411501  0.1579702956429050
  0.6700567461778382  0.3171599315681262  0.6579692263044489
  0.7412908483731460  0.7856124788400267  0.2632039379637250
  0.8066674360040652  0.7856115394084073  0.7632041721172483
