Hf O 
 1.0000000000000000
     5.3283952776722350    0.0000003747130549    0.0000103918737134
     0.0000003762860680    5.0765235022679596    0.0000015341562593
     0.0000108517715523    0.0000015310326889    5.1066276735148994
 Hf  O  
   4   8
Direct
  0.0414365674352490 -0.0009740071429582  0.0009106079575187
 -0.0257803653751913  0.5086258215724695  0.5009091169676104
  0.4742196104885408 -0.0009732704864508  0.5009096133671556
  0.5414363142111482  0.5086268428040932  0.0009104376387948
  0.3390480296371794  0.2242856383792305  0.1859164422630012
  0.1766044988774496  0.2242840183020646  0.6859156932798122
  0.2003971954112332  0.7566378640735518  0.2878563486711701
  0.3152608301295092  0.7566390261754248  0.7878567915463115
  0.8390482019605663  0.2833691539584419  0.1859159196377740
  0.6766043053487039  0.2833708919788994  0.6859151347850986
  0.7003971405135377  0.7510169355004012  0.2878556622630906
  0.8152609167598783  0.7510156892959207  0.7878561828010708
