Hf O 
 1.0000000000000000
     5.3119705977047165    0.0000003126857540    0.0000096033402057
     0.0000003161455564    5.0701937838159177   -0.0000001006502205
     0.0000100698014028   -0.0000001138548053    5.1002971188211221
 Hf  O  
   4   8
Direct
  0.0172655521327099  0.0015504776359292 -0.0014617953636395
 -0.0488364034754340  0.4830147452042789  0.4985376395672415
  0.4511634739961988  0.0015510562966680  0.4985373436289163
  0.5172655876215869  0.4830155809184280 -0.0014612176772073
  0.2793289944487785  0.2529583110367238  0.2247037883973007
  0.1890981472607228  0.2529573085108157  0.7247034501497274
  0.1415445364388010  0.7848693020438243  0.3278117834172488
  0.3268887354588992  0.7848710720421416  0.8278126475479003
  0.7793291563844276  0.2316064619617065  0.2247050430533056
  0.6890980294999826  0.2316075019379739  0.7247046474692134
  0.6415442725767557  0.6996954945546997  0.3278127787899856
  0.8268891299069004  0.6996935726511275  0.8278137195117927
