Hf O 
 1.0000000000000000
     5.2890847849443752    0.0000003998067967    0.0000107734526055
     0.0000003989685702    5.0609222198002266   -0.0000039540045042
     0.0000111672413228   -0.0000039905088178    5.0910422809104157
 Hf  O  
   4   8
Direct
  0.0085450979075831  0.0013402190863361 -0.0012718687744482
 -0.0565014093517092  0.4752164850553335  0.4987274178989647
  0.4434987242230541  0.0013405260349972  0.4987275097229492
  0.5085452932033611  0.4752170755026102 -0.0012716788685682
  0.2587089417177272  0.2621655194378553  0.2367942790166971
  0.1933326972035543  0.2621645284018827  0.7367940987526725
  0.1221066321765748  0.7937111072131118  0.3420282686795735
  0.3299427659803428  0.7937131297442676  0.8420292302117312
  0.7587091516268419  0.2143875211600724  0.2367960620362826
  0.6933325639959188  0.2143884605916444  0.7367958278828176
  0.6221063844024101  0.6828422470588434  0.3420297043570522
  0.8299432538222438  0.6828400684318403  0.8420307736956110
