Hf O 
 1.0000000000000000
     5.3119705977046996    0.0000003126857463    0.0000096033400976
     0.0000003161455491    5.0701937838158520   -0.0000001006501907
     0.0000100698012985   -0.0000001138547753    5.1002971188211133
 Hf  O  
   4   8
Direct
  0.0488365260037948 -0.0015510562966112  0.0014626563712402
 -0.0172655876216122  0.5169844190814760  0.5014612176772067
  0.4827344478673824 -0.0015504776360026  0.5014617953637115
  0.5488364034755251  0.5169852547956807  0.0014623604327168
  0.3584554635612310  0.2151306979562545  0.1721882165827284
  0.1731112645410951  0.2151289279578454  0.6721873524520754
  0.2206710055512551  0.7470416889631919  0.2752962116026772
  0.3109018527392709  0.7470426914891708  0.7752965498501935
  0.8584557274231901  0.3003045054451574  0.1721872212099800
  0.6731108700931649  0.3003064273489027  0.6721862804882850
  0.7206708436155539  0.7683935380383241  0.2752949569466736
  0.8109019705000119  0.7683924980619919  0.7752953525307632
