Hf O 
 1.0000000000000000
     5.3283952776722527    0.0000003747130632    0.0000103918736824
     0.0000003762860761    5.0765235022679880    0.0000015341562346
     0.0000108517715222    0.0000015310326641    5.1066276735149003
 Hf  O  
   4   8
Direct
  0.0257803895114614  0.0009732704864146 -0.0009096133671564
 -0.0414363142111462  0.4913731571959754  0.4990895623612044
  0.4585634325647530  0.0009740071430506  0.4990893920424807
  0.5257803653752283  0.4913741784275334 -0.0009091169675904
  0.2996028045887910  0.2433621359265403  0.2121436513288266
  0.1847391698704558  0.2433609738245828  0.7121432084536837
  0.1609519703628064  0.7757143616208069  0.3140835577369956
  0.3233955011225501  0.7757159816978996  0.8140843067201834
  0.7996028594864676  0.2489830644996049  0.2121443377369976
  0.6847390832400593  0.2489843107040844  0.7121438171989251
  0.6609517980394397  0.7166308460415635  0.3140840803622229
  0.8233956946512970  0.7166291080211066  0.8140848652148976
