Hf O 
 1.0000000000000000
     5.3022410732353604    0.0829447975222363   -0.0700676873089106
    -0.2276113767445121    5.0763648914428705    0.0212232241664081
     0.0673765818554361   -0.0182732498455161    5.0888396416744417
 Hf  O  
   4   8
Direct
  0.0135219681422266 -0.0109903165506247 -0.0130182428962543
 -0.0020076242841899  0.4697261545506746  0.4869649250685945
  0.4779710867158503 -0.0113251485644937  0.4717436028354567
  0.5335775014440063  0.4699888729141785 -0.0282056779934145
  0.2972211338977130  0.2608118106186165  0.2316335587831922
  0.2129472156090444  0.2328050426934783  0.7292587123088433
  0.1611831978130276  0.7782228467069550  0.2907335670563813
  0.3439075068648492  0.7479887808868106  0.7739185828260084
  0.7984985005080347  0.2256158216755062  0.2294924817819136
  0.7142181997717891  0.1977344502471614  0.7318390680466842
  0.6677256643690538  0.7104236732999045  0.2741444064648586
  0.8504903022251507  0.6802926358815471  0.7909294589637138
