Hf O 
 1.0000000000000000
     5.3121918524987359    0.0401534590942528   -0.0714928689793665
    -0.2697188609983776    5.0807430259445114    0.0225792857083024
     0.0682471852781694   -0.0189684535913475    5.0905993970286154
 Hf  O  
   4   8
Direct
  0.0062297414100185 -0.0097621810123857 -0.0053784633808020
  0.0045296665740007  0.4687901011516642  0.4946109479335393
  0.4770999235864196 -0.0106078693053054  0.4706016303860017
  0.5336933434784641  0.4695253585690236 -0.0293456946827757
  0.2964967695066179  0.2620401691165238  0.2340860156961290
  0.2130074848903233  0.2270213133801318  0.7324518130929455
  0.1591312009949950  0.7780195843275044  0.2896496885219033
  0.3455011647241784  0.7387555743359623  0.7655277921625070
  0.7976790072024389  0.2316715837022222  0.2326828622647807
  0.7141870507908719  0.1967734233947544  0.7342925018776139
  0.6653685864629283  0.7199127168943875  0.2657648372741522
  0.8517752495090148  0.6807777099877912  0.7898430112688331
