Hf O 
 1.0000000000000000
     5.2796191167356019    0.1653873384814593   -0.0891476001973923
    -0.1681285214822756    5.0608885158603609    0.0345478488656587
     0.0875860022366453   -0.0318178664726066    5.0894604647937696
 Hf  O  
   4   8
Direct
  0.0251468469073551 -0.0065694563242335 -0.0208131250037183
 -0.0301306144290252  0.4683078105864685  0.4791738926946014
  0.4674332224843826 -0.0061111429253056  0.4781367337477999
  0.5275989199906035  0.4679559689471301 -0.0218312298637582
  0.2791234835268476  0.2618105000691778  0.2283900343730374
  0.2154845242056478  0.2569479492484472  0.7278787416568405
  0.1433000288369104  0.7878470794653775  0.3158594039274099
  0.3498725482511995  0.7829615811387748  0.8134112326332305
  0.7794979418686636  0.2047601230056553  0.2279603036474738
  0.7158551813409243  0.1999527354443968  0.7284658359722955
  0.6451702517873648  0.6787819051262025  0.3134503173859474
  0.8517723397064413  0.6738932581486804  0.8158865513849014
