Hf O 
 1.0000000000000000
     5.2672307378624037    0.1799666727580825   -0.1010357668797316
    -0.1721332819646143    5.0503144050387094    0.0462228735041472
     0.0993337182396772   -0.0431169537351525    5.0823329443974172
 Hf  O  
   4   8
Direct
  0.0100416248493069 -0.0009634110301549 -0.0072064925244414
 -0.0537217791013405  0.4686516537770042  0.4927812136978625
  0.4462914280135071 -0.0009781288391346  0.4927526453554633
  0.5100293840254271  0.4687235538284775 -0.0072302973035209
  0.2516383316856930  0.2683920137290568  0.2413921525756094
  0.2046647729943878  0.2684044860871409  0.7413846214728524
  0.1159289311240644  0.7986964466053824  0.3444922953438609
  0.3404786735858718  0.7987715300115700  0.8445264655945766
  0.7516302719330731  0.1992556993680349  0.2414226960945841
  0.7046491391466059  0.1993358440471347  0.7414252555965948
  0.6159049985740807  0.6689452124000741  0.3445321422370284
  0.8404627213118413  0.6689909930536851  0.8445057035765300
