Hf O 
 1.0000000000000000
     5.3418166078616567   -0.0884066363591222   -0.0757254113645772
    -0.3962483457713981    5.0947414782526446    0.0266382679964097
     0.0708703285519856   -0.0210425835433252    5.0969288030592894
 Hf  O  
   4   8
Direct
 -0.0154324546402050 -0.0059633010921480  0.0172684868913385
  0.0239465656011699  0.4658495732300613  0.5172775188124139
  0.4742933906856853 -0.0078055321708821  0.4671658397734149
  0.5342482129430081  0.4674791932662795 -0.0327724294844288
  0.2943548003341357  0.2657148144691696  0.2413516643258195
  0.2134584605241258  0.2097119194646305  0.7420374094304985
  0.1529490289123125  0.7772155363408396  0.2866747250866609
  0.3506348296292806  0.7112710420446492  0.7403884489072518
  0.7949652547304432  0.2497913561009131  0.2422591502462380
  0.7140791662889574  0.1938957313930660  0.7415612664510197
  0.6579645348322641  0.7481678047886412  0.2406518969905913
  0.8556741776996863  0.6824211733936049  0.7868592413198441
