Hf O 
 1.0000000000000000
     5.3646376860118670   -0.2556281710381345   -0.0655316062314344
    -0.5217463706253088    5.1193171343586377    0.0206995724515510
     0.0610141884470520   -0.0144548137450373    5.1211831089302500
 Hf  O  
   4   8
Direct
 -0.0253195013417107  0.0012144331921002  0.0276380612346954
  0.0468738053594388  0.4610109201785980  0.5276712686595879
  0.4742856038887599  0.0009979909759761  0.4525498018730097
  0.5472855812515025  0.4611267997428762 -0.0474038462558294
  0.2939038465441129  0.2742583058885649  0.2375244110186999
  0.2276510102811199  0.1901837697034596  0.7423186244473229
  0.1415318099674534  0.7824612582317978  0.2862128824116170
  0.3789823884079428  0.6836951754279768  0.6995114161328285
  0.7938658601909706  0.2719512826254779  0.2423583521653352
  0.7276217944543591  0.1878937933297571  0.7375673695385806
  0.6426383340831172  0.7784613638885847  0.1995309658161710
  0.8800678217370284  0.6796747988353227  0.7862601681665393
