Hf O 
 1.0000000000000000
     5.3220863787071293   -0.0024916941684997   -0.0728993873421829
    -0.3116790688652177    5.0852333778794465    0.0239222859986271
     0.0691117322892755   -0.0196566224971644    5.0925699268322173
 Hf  O  
   4   8
Direct
 -0.0010250552139342 -0.0085058290724769  0.0021950477397046
  0.0110398305366150  0.4678200470279397  0.5021907476886943
  0.4762099013934967 -0.0097909914346869  0.4694662285672661
  0.5338365931527970  0.4689593296254742 -0.0304787401534216
  0.2957850031735236  0.2632563802948866  0.2365004430780465
  0.2131122025362096  0.2212957213879028  0.7356201850709512
  0.1570939094509917  0.7777822725514997  0.2886166493338930
  0.3471568224171474  0.7295867330165925  0.7571732304059952
  0.7968247146236582  0.2376655024486072  0.2358483475545475
  0.7141526392976061  0.1958211081331715  0.7367079654070517
  0.6629611188665498  0.7293352830660305  0.2574202449059156
  0.8530571061438510  0.6812930349492009  0.7888073473735013
