Hf O 
 1.0000000000000000
     5.3319220998016670   -0.0452592118235547   -0.0743036495443560
    -0.3537661532968588    5.0898682508702500    0.0252741358608203
     0.0699825379541824   -0.0203410403520774    5.0946845855321490
 Hf  O  
   4   8
Direct
 -0.0082425002560531 -0.0072399355720108  0.0097356436950901
  0.0175132879139277  0.4668396409476255  0.5097387300133368
  0.4752820284980521 -0.0088625218149488  0.4683243377642257
  0.5340176826286106  0.4682815868798604 -0.0316175664363572
  0.2950736420931391  0.2644759497036197  0.2389103601060227
  0.2132630423354695  0.2155486145717432  0.7388028962567090
  0.1550400288047814  0.7775122438390317  0.2876263050996240
  0.3488599804782473  0.7204409443920254  0.7488087543343227
  0.7959230322285007  0.2436812873130136  0.2390279792446897
  0.7141177094792314  0.1948658162694535  0.7391189326083919
  0.6605040040637485  0.7387365682037563  0.2490645654246055
  0.8543528402634810  0.6818415014985875  0.7878140991946874
