Hf O 
 1.0000000000000000
     5.3538352579680373   -0.3323004940588531   -0.0382620304369474
    -0.5200207845111078    5.1272968000432027    0.0012305172437748
     0.0364149126702389    0.0025186238774258    5.1445738569459563
 Hf  O  
   4   8
Direct
 -0.0118825443064333  0.0032986080635099  0.0110624049777041
  0.0675456671878391  0.4574549695134181  0.5110860456864377
  0.4881103897403896  0.0032536545377922  0.4303713709525052
  0.5675595973922759  0.4574363057901084 -0.0696034230108763
  0.3059883696778332  0.2773319406240571  0.2165516904711763
  0.2496965118804889  0.1834432947175064  0.7249645174757028
  0.1453752173014478  0.7878412571190354  0.2783564696660658
  0.4102724103997284  0.6729214901605349  0.6631471903911238
  0.8059827373447186  0.2773101113150339  0.2249230436666003
  0.7496920679677628  0.1834178723368014  0.7165135198920178
  0.6453873206441965  0.7878376352557694  0.1631145876144090
  0.9102735419933307  0.6728948665251594  0.7783503393263747
