Hf O 
 1.0000000000000000
     5.3431676245139439   -0.2204495223511080   -0.0081435650953654
    -0.6338899617711454    5.1106019903882762   -0.0078501079128210
     0.0081274009073915    0.0089954702568028    5.1645440052035516
 Hf  O  
   4   8
Direct
 -0.0030108150912762 -0.0008855417834825  0.0037372505917014
  0.0788962785253672  0.4508174428813742  0.5037453392414074
  0.4969756468043601 -0.0009069918248036  0.4217766691296415
  0.5789107676995429  0.4508371982934396 -0.0782163668001384
  0.3132889536472246  0.2739191851999061  0.2071390539591254
  0.2626108757538321  0.1759753321301628  0.7184062114126036
  0.1463804820081403  0.7877584049839824  0.2807254553022347
  0.4295142535176765  0.6620983228848512  0.6447023367393844
  0.8132958656826077  0.2739616153771385  0.2183796128716897
  0.7626191147227536  0.1760232947412564  0.7071127439602224
  0.6463680655866663  0.7878444340598469  0.1446975974359574
  0.9294989248491031  0.6621890038507702  0.7807152674816571
