Hf O 
 1.0000000000000000
     5.2390601337432896    0.0000000000000000   -0.0000000000000050
     0.0000000000000000    5.0758502946391850    0.0000000000000000
    -0.0000411434505815    0.0000028881356492    5.1646709746264001
 Hf  O  
   4   8
Direct
 -0.0073640095151593  0.0342365228855367  0.0032905531422718
  0.4926314337973157 -0.0432910408819824  0.4922725252758188
  0.4926338796997459  0.4567070585648873  0.0032939296971165
 -0.0073661054132756  0.5342349483559186  0.4922763668291139
  0.2075805997868761  0.3117043115491381  0.2430822763370590
  0.7075784004550077  0.1792310751166828  0.2430749383817402
  0.3144438367890214  0.1456206538669465  0.7883582628952784
  0.8144439307250828  0.3453263237977846  0.7883596998637082
  0.2075654595108975  0.8117064754428358  0.2524917571744414
  0.7075632971710080  0.6792290552583473  0.2524988465123202
  0.3144417884646091  0.6456214943305953  0.7072098008866439
  0.8144418470072949  0.8453254291069215  0.7072083045594693
