Hf O 
 1.0000000000000000
     5.2390601337432896    0.0000000000000000   -0.0000000000000050
     0.0000000000000000    5.0758502946391850    0.0000000000000000
    -0.0000018820941184    0.0000042063054995    5.2124912545057329
 Hf  O  
   4   8
Direct
  0.0000570871508412  0.0453383871845634 -0.0000300645395100
  0.5000564762565762 -0.0453636418552025  0.5000081147834520
  0.5000559480541333  0.4546362907657113 -0.0000280414515031
  0.0000574279998656  0.5453383975547194  0.5000096182931661
  0.1894462134672328  0.3429667751484808  0.2216586047730223
  0.6894456856422548  0.1570047019339375  0.2216559003496310
  0.3105381249245284  0.1571311460775824  0.7781947054010759
  0.8105390595015435  0.3428472842181260  0.7781978508361419
  0.1894462470151387  0.8429668144196349  0.2783211233048130
  0.6894456640223204  0.6570047975489974  0.2783237087133620
  0.3105384182492441  0.6571313829039485  0.7217849794740834
  0.8105388687348902  0.8428466475944604  0.7217824422512259
