Hf O 
 1.0000000000000000
     5.2390601337432896   -0.0000000000000000   -0.0000000000000050
     0.0000000000000000    5.0758502946391850    0.0000000000000000
    -0.0000134621629051    0.0000012972396255    5.1123769381724689
 Hf  O  
   4   8
Direct
 -0.0162969522472466  0.0250797062817083  0.0073694050278937
  0.4837034137550205 -0.0392114177817925  0.4857164020502074
  0.4837016745031047  0.4607872536647794  0.0073719326432790
 -0.0162950130954177  0.5250785501023596  0.4857189210823561
  0.2221079720961132  0.2842510888064473  0.2640034514848411
  0.7221065965514609  0.2016111944804636  0.2639974375071028
  0.3170488297438701  0.1387794323083694  0.7983057896672550
  0.8170485755969118  0.3470903699167934  0.7983055776448491
  0.2221013794067750  0.7842519227102492  0.2290888760276941
  0.7221000184814730  0.7016104812938216  0.2290946632116990
  0.3170503145215173  0.6387806035590665  0.6947834643637542
  0.8170501183839279  0.8470892819273168  0.6947833892784812
