Ga N 
 1.0000000000000000
     1.8005847393926870   -2.1744695290000000   -0.0000116750000000
     1.8005847403941584    2.1744695300000001    0.0000116860000000
     0.0000000120176560    0.0000219880000000    4.6887578330000004
 Ga  N  
   2   2
Direct
  0.6545117614939641  0.3454885874565198  0.5218916589854051
  0.2534757930606025  0.7465245590039686  0.0218936953240356
  0.6862525554816939  0.3137477908199698  0.9214048793766956
  0.2217252397600367  0.7782751096204172  0.4214044666186203
