Hf O
 1.0000000000000000
     5.2914507350807227    0.0000000000000000   -0.0000000000000051
     0.0000000000000000    5.1266087975855772    0.0000000000000000
    -0.0000004799226094    0.0000003543564038    5.0502039247530739
 Hf  O
   4   8
Direct
 -0.0000000000000001 -0.0000000000000000  0.0000000000000002
  0.5000004139018012 -0.0650192911975134  0.4682164791308063
  0.4999999563764034  0.4349807412014611 -0.0000000555351009
  0.0000008651399779  0.5000001710028712  0.4682169374556772
  0.2483460275231856  0.2378429425529162  0.2706765089136652
  0.7483458485342672  0.1971431296685210  0.2706755204181963
  0.3567902528802736  0.1023877539380154  0.8022903190352604
  0.8567912661738318  0.3326043905092751  0.8022924689230255
  0.2483485818766099  0.7378437989465864  0.1975367930039007
  0.7483481801874100  0.6971425855034095  0.1975377908356288
  0.3567925082994129  0.6023876607828526  0.6659231582392896
  0.8567935876980439  0.8326048435379168  0.6659206841220694
