Hf O 
 1.0000000000000000
     5.2390601337432896    0.0000000000000000   -0.0000000000000050
     0.0000000000000000    5.0758502946391850    0.0000000000000000
     0.0182399136278916   -0.3011216612937828    5.1138212113241677
 Hf  O  
   4   8
Direct
  0.0076519481699883 -0.0073325575342282 -0.0068334189410766
  0.5078042463720509  0.0161450709556469  0.4659071619170583
  0.4672997104280512  0.4773439381375483 -0.0063539566177616
 -0.0323587498821318  0.5330350855334300  0.4655963350970551
  0.2381317115261836  0.2872711117554709  0.2658633944710978
  0.7404106690322584  0.2214569213767198  0.2185586042785617
  0.2977178059544159  0.1454181937220914  0.7856550802423694
  0.7393258174825718  0.3571530470660123  0.7192876266920728
  0.2406601643055894  0.7886299680381972  0.2403254614389565
  0.7382628993379533  0.7218983525751180  0.1936812581042720
  0.2393271378734068  0.6524660050605565  0.7396671855279278
  0.7978008118486908  0.8650459949913704  0.6737616878343773
