Hf O 
 1.0000000000000000
     5.2390601337432896   -0.0000000000000000   -0.0000000000000050
     0.0000000000000000    5.0758502946391850    0.0000000000000000
     0.0188366777548947   -0.1657153445301849    5.0960701024295929
 Hf  O  
   4   8
Direct
 -0.0134882122844077  0.0145936642418510 -0.0092275911380663
  0.4865381814894069 -0.0075650742884833  0.4682256760549493
  0.4705414803764456  0.4776538344577505 -0.0087551394706786
 -0.0292777225817277  0.5308462983792815  0.4679022430065979
  0.2332751233334279  0.2854902246345766  0.2631707232868387
  0.7313877727309076  0.2212876911226309  0.2398704355645302
  0.2989291888004995  0.1516954666671783  0.7859314621420318
  0.7767047785676103  0.3492451284376629  0.7555053896698969
  0.2316051336935485  0.7869651954969930  0.2193699095557021
  0.7333876503912246  0.7219190157428003  0.1963604004493459
  0.2764957286892137  0.6585469410740932  0.7037569969243641
  0.7988016853964133  0.8569128650197416  0.6735241757719281
