Ga N 
 1.0000000000000000
     2.0291112342277855   -2.0291112342277855    0.0000000000000000
     2.0291112342277855    2.0291112342277855    0.0000000000000000
     0.0000000000000000    0.0000000000000000    4.0580649313120940
 Ga  N  
   2   2
Cartesian
  2.0291112342277837 -0.6763704114092614  2.0264043672979417
  2.0291112342277833  1.3527408228185247  4.0554368329539887
  2.0291112342277837 -0.6763704114092614  4.0554368329539887
  2.0291112342277833  1.3527408228185247  2.0264043672979417
