 vasp.6.3.2 27Jun22 (build Sep 18 2026 15:57:57) complex                        
  
 executed on             LinuxIFC date 2026.09.18  17:20:32
 running on   32 total cores
 distrk:  each k-point on   32 cores,    1 groups
 distr:  one band on NCORE=   1 cores,   32 groups


--------------------------------------------------------------------------------------------------------


 INCAR:
   ENCUT = 600.000000
   SIGMA = 0.050000
   EDIFF = 1.00e-07
   SYMPREC = 1.00e-04
   GGA = PE
   PREC = Accurate
   IBRION = -1
   ISIF = 2
   ISMEAR = 0
   ISYM = -1
   NSW = 0
   LCHARG = .FALSE.
   LWAVE = .FALSE.

 POTCAR:    PAW_PBE Ga_d 06Jul2010                
 POTCAR:    PAW_PBE N 08Apr2002                   
 -----------------------------------------------------------------------------
|                                                                             |
|           W    W    AA    RRRRR   N    N  II  N    N   GGGG   !!!           |
|           W    W   A  A   R    R  NN   N  II  NN   N  G    G  !!!           |
|           W    W  A    A  R    R  N N  N  II  N N  N  G       !!!           |
|           W WW W  AAAAAA  RRRRR   N  N N  II  N  N N  G  GGG   !            |
|           WW  WW  A    A  R   R   N   NN  II  N   NN  G    G                |
|           W    W  A    A  R    R  N    N  II  N    N   GGGG   !!!           |
|                                                                             |
|     For optimal performance we recommend to set                             |
|       NCORE = 2 up to number-of-cores-per-socket                            |
|     NCORE specifies how many cores store one orbital (NPAR=cpu/NCORE).      |
|     This setting can greatly improve the performance of VASP for DFT.       |
|     The default, NCORE=1 might be grossly inefficient on modern             |
|     multi-core architectures or massively parallel machines. Do your        |
|     own testing! More info at https://www.vasp.at/wiki/index.php/NCORE      |
|     Unfortunately you need to use the default for GW and RPA                |
|     calculations (for HF NCORE is supported but not extensively tested      |
|     yet).                                                                   |
|                                                                             |
 -----------------------------------------------------------------------------

 POTCAR:    PAW_PBE Ga_d 06Jul2010                
   VRHFIN =Ga: s2p1                                                                                 
   LEXCH  = PE                                                                                      
   EATOM  =  2148.8298 eV,  157.9345 Ry                                                             
                                                                                                    
   TITEL  = PAW_PBE Ga_d 06Jul2010                                                                  
   LULTRA =        F    use ultrasoft PP ?                                                          
   IUNSCR =        1    unscreen: 0-lin 1-nonlin 2-no                                               
   RPACOR =    1.700    partial core radius                                                         
   POMASS =   69.723; ZVAL   =   13.000    mass and valenz                                          
   RCORE  =    2.300    outmost cutoff radius                                                       
   RWIGS  =    2.300; RWIGS  =    1.217    wigner-seitz radius (au A)                               
   ENMAX  =  282.691; ENMIN  =  212.018 eV                                                          
   ICORE  =        3    local potential                                                             
   LCOR   =        T    correct aug charges                                                         
   LPAW   =        T    paw PP                                                                      
   EAUG   =  490.690                                                                                
   DEXC   =    0.000                                                                                
   RMAX   =    2.341    core radius for proj-oper                                                   
   RAUG   =    1.300    factor for augmentation sphere                                              
   RDEP   =    2.413    radius for radial grids                                                     
   RDEPT  =    1.856    core radius for aug-charge                                                  
                                                                                                    
   Atomic configuration                                                                             
    9 entries                                                                                       
     n  l   j            E        occ.                                                              
     1  0  0.50    -10228.7831   2.0000                                                             
     2  0  0.50     -1262.1604   2.0000                                                             
     2  1  1.50     -1098.6333   6.0000                                                             
     3  0  0.50      -148.1110   2.0000                                                             
     3  1  1.50       -98.8436   6.0000                                                             
     3  2  2.50       -19.1549  10.0000                                                             
     4  0  0.50        -8.9483   2.0000                                                             
     4  1  0.50        -2.5791   1.0000                                                             
     4  3  2.50        -2.7416   0.0000                                                             
   Description                                                                                      
     l       E           TYP  RCUT    TYP  RCUT                                                     
     2    -19.1549037     23  2.300                                                                 
     2     -5.4423304     23  2.300                                                                 
     0     -8.9483111     23  2.300                                                                 
     0     68.0291300     23  2.300                                                                 
     1     -2.5790802     23  2.100                                                                 
     1     81.6349560     23  2.300                                                                 
     3      6.8029130     23  2.300                                                                 
  local pseudopotential read in
  partial core-charges read in
  partial kinetic energy density read in
  atomic valenz-charges read in
  non local Contribution for L=           2  read in
    real space projection operators read in
  non local Contribution for L=           2  read in
    real space projection operators read in
  non local Contribution for L=           0  read in
    real space projection operators read in
  non local Contribution for L=           0  read in
    real space projection operators read in
  non local Contribution for L=           1  read in
    real space projection operators read in
  non local Contribution for L=           1  read in
    real space projection operators read in
    PAW grid and wavefunctions read in
 
   number of l-projection  operators is LMAX  =           6
   number of lm-projection operators is LMMAX =          18
 
 POTCAR:    PAW_PBE N 08Apr2002                   
   VRHFIN =N: s2p3                                                                                  
   LEXCH  = PE                                                                                      
   EATOM  =   264.5486 eV,   19.4438 Ry                                                             
                                                                                                    
   TITEL  = PAW_PBE N 08Apr2002                                                                     
   LULTRA =        F    use ultrasoft PP ?                                                          
   IUNSCR =        1    unscreen: 0-lin 1-nonlin 2-no                                               
   RPACOR =    1.200    partial core radius                                                         
   POMASS =   14.001; ZVAL   =    5.000    mass and valenz                                          
   RCORE  =    1.500    outmost cutoff radius                                                       
   RWIGS  =    1.400; RWIGS  =    0.741    wigner-seitz radius (au A)                               
   ENMAX  =  400.000; ENMIN  =  300.000 eV                                                          
   ICORE  =        2    local potential                                                             
   LCOR   =        T    correct aug charges                                                         
   LPAW   =        T    paw PP                                                                      
   EAUG   =  627.112                                                                                
   DEXC   =    0.000                                                                                
   RMAX   =    1.529    core radius for proj-oper                                                   
   RAUG   =    1.300    factor for augmentation sphere                                              
   RDEP   =    1.514    radius for radial grids                                                     
   RDEPT  =    1.338    core radius for aug-charge                                                  
                                                                                                    
   Atomic configuration                                                                             
    4 entries                                                                                       
     n  l   j            E        occ.                                                              
     1  0  0.50      -384.7179   2.0000                                                             
     2  0  0.50       -18.5828   2.0000                                                             
     2  1  0.50        -7.0898   3.0000                                                             
     3  2  1.50        -6.8029   0.0000                                                             
   Description                                                                                      
     l       E           TYP  RCUT    TYP  RCUT                                                     
     0    -18.5828119     23  1.200                                                                 
     0    -13.5018863     23  1.200                                                                 
     1     -7.0897853     23  1.500                                                                 
     1      9.5240782     23  1.500                                                                 
     2     -6.8029130      7  1.500                                                                 
  local pseudopotential read in
  partial core-charges read in
  partial kinetic energy density read in
  atomic valenz-charges read in
  non local Contribution for L=           0  read in
    real space projection operators read in
  non local Contribution for L=           0  read in
    real space projection operators read in
  non local Contribution for L=           1  read in
    real space projection operators read in
  non local Contribution for L=           1  read in
    real space projection operators read in
    PAW grid and wavefunctions read in
 
   number of l-projection  operators is LMAX  =           4
   number of lm-projection operators is LMMAX =           8
 
  PAW_PBE Ga_d 06Jul2010                :
 energy of atom  1       EATOM=-2148.8298
 kinetic energy error for atom=    0.0018 (will be added to EATOM!!)
  PAW_PBE N 08Apr2002                   :
 energy of atom  2       EATOM= -264.5486
 kinetic energy error for atom=    0.0103 (will be added to EATOM!!)
 
 
 POSCAR: Ga N
  positions in cartesian coordinates
  No initial velocities read in
 exchange correlation table for  LEXCH =        8
   RHO(1)=    0.500       N(1)  =     2000
   RHO(2)=  100.500       N(2)  =     4000
 


--------------------------------------------------------------------------------------------------------


 ion  position               nearest neighbor table
   1  0.667  0.333  0.499-   3 2.03   3 2.03   4 2.03   4 2.03   4 2.03   4 2.03   2 2.87   2 2.87
                             2 2.87   2 2.87   2 2.87   2 2.87   2 2.87   2 2.87
   2  0.167  0.833  0.999-   4 2.03   4 2.03   3 2.03   3 2.03   3 2.03   3 2.03   1 2.87   1 2.87
                             1 2.87   1 2.87   1 2.87   1 2.87   1 2.87   1 2.87
   3  0.667  0.333  0.999-   1 2.03   1 2.03   2 2.03   2 2.03   2 2.03   2 2.03
   4  0.167  0.833  0.499-   2 2.03   2 2.03   1 2.03   1 2.03   1 2.03   1 2.03
 

IMPORTANT INFORMATION: All symmetrisations will be switched off!
NOSYMM: (Re-)initialisation of all symmetry stuff for point group C_1.


----------------------------------------------------------------------------------------

                                     Primitive cell                                     

  volume of cell :      33.4165

  direct lattice vectors                    reciprocal lattice vectors
     2.029111234 -2.029111234  0.000000000     0.246413302 -0.246413302  0.000000000
     2.029111234  2.029111234  0.000000000     0.246413302  0.246413302  0.000000000
     0.000000000  0.000000000  4.058064931     0.000000000  0.000000000  0.246422868

  length of vectors
     2.869596627  2.869596627  4.058064931     0.348481034  0.348481034  0.246422868

  position of ions in fractional coordinates (direct lattice)
     0.666666667  0.333333333  0.499352376
     0.166666667  0.833333333  0.999352376
     0.666666667  0.333333333  0.999352376
     0.166666667  0.833333333  0.499352376

  ion indices of the primitive-cell ions
   primitive index   ion index
                 1           1
                 2           2
                 3           3
                 4           4

----------------------------------------------------------------------------------------

 
 
 KPOINTS: KPOINTS created by Atomic Simulation Env

Automatic generation of k-mesh.
 Grid dimensions read from file:
 generate k-points for:    8    8    6

 Generating k-lattice:

  Cartesian coordinates                     Fractional coordinates (reciprocal lattice)
     0.030801663 -0.030801663  0.000000000     0.125000000 -0.000000000  0.000000000
     0.030801663  0.030801663  0.000000000    -0.000000000  0.125000000  0.000000000
     0.000000000  0.000000000  0.041070478     0.000000000  0.000000000  0.166666667

  Length of vectors
     0.043560129  0.043560129  0.041070478

  Shift w.r.t. Gamma in fractional coordinates (k-lattice)
     0.000000000  0.000000000  0.000000000

 
 Subroutine IBZKPT returns following result:
 ===========================================
 
 Found    384 irreducible k-points:
 
 Following reciprocal coordinates:
            Coordinates               Weight
  0.000000  0.000000  0.000000      1.000000
  0.125000 -0.000000  0.000000      1.000000
  0.250000 -0.000000  0.000000      1.000000
  0.375000 -0.000000  0.000000      1.000000
  0.500000 -0.000000  0.000000      1.000000
 -0.375000  0.000000  0.000000      1.000000
 -0.250000  0.000000  0.000000      1.000000
 -0.125000  0.000000  0.000000      1.000000
 -0.000000  0.125000  0.000000      1.000000
  0.125000  0.125000  0.000000      1.000000
  0.250000  0.125000  0.000000      1.000000
  0.375000  0.125000  0.000000      1.000000
  0.500000  0.125000  0.000000      1.000000
 -0.375000  0.125000  0.000000      1.000000
 -0.250000  0.125000  0.000000      1.000000
 -0.125000  0.125000  0.000000      1.000000
 -0.000000  0.250000  0.000000      1.000000
  0.125000  0.250000  0.000000      1.000000
  0.250000  0.250000  0.000000      1.000000
  0.375000  0.250000  0.000000      1.000000
  0.500000  0.250000  0.000000      1.000000
 -0.375000  0.250000  0.000000      1.000000
 -0.250000  0.250000  0.000000      1.000000
 -0.125000  0.250000  0.000000      1.000000
 -0.000000  0.375000  0.000000      1.000000
  0.125000  0.375000  0.000000      1.000000
  0.250000  0.375000  0.000000      1.000000
  0.375000  0.375000  0.000000      1.000000
  0.500000  0.375000  0.000000      1.000000
 -0.375000  0.375000  0.000000      1.000000
 -0.250000  0.375000  0.000000      1.000000
 -0.125000  0.375000  0.000000      1.000000
 -0.000000  0.500000  0.000000      1.000000
  0.125000  0.500000  0.000000      1.000000
  0.250000  0.500000  0.000000      1.000000
  0.375000  0.500000  0.000000      1.000000
  0.500000  0.500000  0.000000      1.000000
 -0.375000  0.500000  0.000000      1.000000
 -0.250000  0.500000  0.000000      1.000000
 -0.125000  0.500000  0.000000      1.000000
  0.000000 -0.375000  0.000000      1.000000
  0.125000 -0.375000  0.000000      1.000000
  0.250000 -0.375000  0.000000      1.000000
  0.375000 -0.375000  0.000000      1.000000
  0.500000 -0.375000  0.000000      1.000000
 -0.375000 -0.375000  0.000000      1.000000
 -0.250000 -0.375000  0.000000      1.000000
 -0.125000 -0.375000  0.000000      1.000000
  0.000000 -0.250000  0.000000      1.000000
  0.125000 -0.250000  0.000000      1.000000
  0.250000 -0.250000  0.000000      1.000000
  0.375000 -0.250000  0.000000      1.000000
  0.500000 -0.250000  0.000000      1.000000
 -0.375000 -0.250000  0.000000      1.000000
 -0.250000 -0.250000  0.000000      1.000000
 -0.125000 -0.250000  0.000000      1.000000
  0.000000 -0.125000  0.000000      1.000000
  0.125000 -0.125000  0.000000      1.000000
  0.250000 -0.125000  0.000000      1.000000
  0.375000 -0.125000  0.000000      1.000000
  0.500000 -0.125000  0.000000      1.000000
 -0.375000 -0.125000  0.000000      1.000000
 -0.250000 -0.125000  0.000000      1.000000
 -0.125000 -0.125000  0.000000      1.000000
  0.000000  0.000000  0.166667      1.000000
  0.125000 -0.000000  0.166667      1.000000
  0.250000 -0.000000  0.166667      1.000000
  0.375000 -0.000000  0.166667      1.000000
  0.500000 -0.000000  0.166667      1.000000
 -0.375000  0.000000  0.166667      1.000000
 -0.250000  0.000000  0.166667      1.000000
 -0.125000  0.000000  0.166667      1.000000
 -0.000000  0.125000  0.166667      1.000000
  0.125000  0.125000  0.166667      1.000000
  0.250000  0.125000  0.166667      1.000000
  0.375000  0.125000  0.166667      1.000000
  0.500000  0.125000  0.166667      1.000000
 -0.375000  0.125000  0.166667      1.000000
 -0.250000  0.125000  0.166667      1.000000
 -0.125000  0.125000  0.166667      1.000000
 -0.000000  0.250000  0.166667      1.000000
  0.125000  0.250000  0.166667      1.000000
  0.250000  0.250000  0.166667      1.000000
  0.375000  0.250000  0.166667      1.000000
  0.500000  0.250000  0.166667      1.000000
 -0.375000  0.250000  0.166667      1.000000
 -0.250000  0.250000  0.166667      1.000000
 -0.125000  0.250000  0.166667      1.000000
 -0.000000  0.375000  0.166667      1.000000
  0.125000  0.375000  0.166667      1.000000
  0.250000  0.375000  0.166667      1.000000
  0.375000  0.375000  0.166667      1.000000
  0.500000  0.375000  0.166667      1.000000
 -0.375000  0.375000  0.166667      1.000000
 -0.250000  0.375000  0.166667      1.000000
 -0.125000  0.375000  0.166667      1.000000
 -0.000000  0.500000  0.166667      1.000000
  0.125000  0.500000  0.166667      1.000000
  0.250000  0.500000  0.166667      1.000000
  0.375000  0.500000  0.166667      1.000000
  0.500000  0.500000  0.166667      1.000000
 -0.375000  0.500000  0.166667      1.000000
 -0.250000  0.500000  0.166667      1.000000
 -0.125000  0.500000  0.166667      1.000000
  0.000000 -0.375000  0.166667      1.000000
  0.125000 -0.375000  0.166667      1.000000
  0.250000 -0.375000  0.166667      1.000000
  0.375000 -0.375000  0.166667      1.000000
  0.500000 -0.375000  0.166667      1.000000
 -0.375000 -0.375000  0.166667      1.000000
 -0.250000 -0.375000  0.166667      1.000000
 -0.125000 -0.375000  0.166667      1.000000
  0.000000 -0.250000  0.166667      1.000000
  0.125000 -0.250000  0.166667      1.000000
  0.250000 -0.250000  0.166667      1.000000
  0.375000 -0.250000  0.166667      1.000000
  0.500000 -0.250000  0.166667      1.000000
 -0.375000 -0.250000  0.166667      1.000000
 -0.250000 -0.250000  0.166667      1.000000
 -0.125000 -0.250000  0.166667      1.000000
  0.000000 -0.125000  0.166667      1.000000
  0.125000 -0.125000  0.166667      1.000000
  0.250000 -0.125000  0.166667      1.000000
  0.375000 -0.125000  0.166667      1.000000
  0.500000 -0.125000  0.166667      1.000000
 -0.375000 -0.125000  0.166667      1.000000
 -0.250000 -0.125000  0.166667      1.000000
 -0.125000 -0.125000  0.166667      1.000000
  0.000000  0.000000  0.333333      1.000000
  0.125000 -0.000000  0.333333      1.000000
  0.250000 -0.000000  0.333333      1.000000
  0.375000 -0.000000  0.333333      1.000000
  0.500000 -0.000000  0.333333      1.000000
 -0.375000  0.000000  0.333333      1.000000
 -0.250000  0.000000  0.333333      1.000000
 -0.125000  0.000000  0.333333      1.000000
 -0.000000  0.125000  0.333333      1.000000
  0.125000  0.125000  0.333333      1.000000
  0.250000  0.125000  0.333333      1.000000
  0.375000  0.125000  0.333333      1.000000
  0.500000  0.125000  0.333333      1.000000
 -0.375000  0.125000  0.333333      1.000000
 -0.250000  0.125000  0.333333      1.000000
 -0.125000  0.125000  0.333333      1.000000
 -0.000000  0.250000  0.333333      1.000000
  0.125000  0.250000  0.333333      1.000000
  0.250000  0.250000  0.333333      1.000000
  0.375000  0.250000  0.333333      1.000000
  0.500000  0.250000  0.333333      1.000000
 -0.375000  0.250000  0.333333      1.000000
 -0.250000  0.250000  0.333333      1.000000
 -0.125000  0.250000  0.333333      1.000000
 -0.000000  0.375000  0.333333      1.000000
  0.125000  0.375000  0.333333      1.000000
  0.250000  0.375000  0.333333      1.000000
  0.375000  0.375000  0.333333      1.000000
  0.500000  0.375000  0.333333      1.000000
 -0.375000  0.375000  0.333333      1.000000
 -0.250000  0.375000  0.333333      1.000000
 -0.125000  0.375000  0.333333      1.000000
 -0.000000  0.500000  0.333333      1.000000
  0.125000  0.500000  0.333333      1.000000
  0.250000  0.500000  0.333333      1.000000
  0.375000  0.500000  0.333333      1.000000
  0.500000  0.500000  0.333333      1.000000
 -0.375000  0.500000  0.333333      1.000000
 -0.250000  0.500000  0.333333      1.000000
 -0.125000  0.500000  0.333333      1.000000
  0.000000 -0.375000  0.333333      1.000000
  0.125000 -0.375000  0.333333      1.000000
  0.250000 -0.375000  0.333333      1.000000
  0.375000 -0.375000  0.333333      1.000000
  0.500000 -0.375000  0.333333      1.000000
 -0.375000 -0.375000  0.333333      1.000000
 -0.250000 -0.375000  0.333333      1.000000
 -0.125000 -0.375000  0.333333      1.000000
  0.000000 -0.250000  0.333333      1.000000
  0.125000 -0.250000  0.333333      1.000000
  0.250000 -0.250000  0.333333      1.000000
  0.375000 -0.250000  0.333333      1.000000
  0.500000 -0.250000  0.333333      1.000000
 -0.375000 -0.250000  0.333333      1.000000
 -0.250000 -0.250000  0.333333      1.000000
 -0.125000 -0.250000  0.333333      1.000000
  0.000000 -0.125000  0.333333      1.000000
  0.125000 -0.125000  0.333333      1.000000
  0.250000 -0.125000  0.333333      1.000000
  0.375000 -0.125000  0.333333      1.000000
  0.500000 -0.125000  0.333333      1.000000
 -0.375000 -0.125000  0.333333      1.000000
 -0.250000 -0.125000  0.333333      1.000000
 -0.125000 -0.125000  0.333333      1.000000
  0.000000  0.000000  0.500000      1.000000
  0.125000 -0.000000  0.500000      1.000000
  0.250000 -0.000000  0.500000      1.000000
  0.375000 -0.000000  0.500000      1.000000
  0.500000 -0.000000  0.500000      1.000000
 -0.375000  0.000000  0.500000      1.000000
 -0.250000  0.000000  0.500000      1.000000
 -0.125000  0.000000  0.500000      1.000000
 -0.000000  0.125000  0.500000      1.000000
  0.125000  0.125000  0.500000      1.000000
  0.250000  0.125000  0.500000      1.000000
  0.375000  0.125000  0.500000      1.000000
  0.500000  0.125000  0.500000      1.000000
 -0.375000  0.125000  0.500000      1.000000
 -0.250000  0.125000  0.500000      1.000000
 -0.125000  0.125000  0.500000      1.000000
 -0.000000  0.250000  0.500000      1.000000
  0.125000  0.250000  0.500000      1.000000
  0.250000  0.250000  0.500000      1.000000
  0.375000  0.250000  0.500000      1.000000
  0.500000  0.250000  0.500000      1.000000
 -0.375000  0.250000  0.500000      1.000000
 -0.250000  0.250000  0.500000      1.000000
 -0.125000  0.250000  0.500000      1.000000
 -0.000000  0.375000  0.500000      1.000000
  0.125000  0.375000  0.500000      1.000000
  0.250000  0.375000  0.500000      1.000000
  0.375000  0.375000  0.500000      1.000000
  0.500000  0.375000  0.500000      1.000000
 -0.375000  0.375000  0.500000      1.000000
 -0.250000  0.375000  0.500000      1.000000
 -0.125000  0.375000  0.500000      1.000000
 -0.000000  0.500000  0.500000      1.000000
  0.125000  0.500000  0.500000      1.000000
  0.250000  0.500000  0.500000      1.000000
  0.375000  0.500000  0.500000      1.000000
  0.500000  0.500000  0.500000      1.000000
 -0.375000  0.500000  0.500000      1.000000
 -0.250000  0.500000  0.500000      1.000000
 -0.125000  0.500000  0.500000      1.000000
  0.000000 -0.375000  0.500000      1.000000
  0.125000 -0.375000  0.500000      1.000000
  0.250000 -0.375000  0.500000      1.000000
  0.375000 -0.375000  0.500000      1.000000
  0.500000 -0.375000  0.500000      1.000000
 -0.375000 -0.375000  0.500000      1.000000
 -0.250000 -0.375000  0.500000      1.000000
 -0.125000 -0.375000  0.500000      1.000000
  0.000000 -0.250000  0.500000      1.000000
  0.125000 -0.250000  0.500000      1.000000
  0.250000 -0.250000  0.500000      1.000000
  0.375000 -0.250000  0.500000      1.000000
  0.500000 -0.250000  0.500000      1.000000
 -0.375000 -0.250000  0.500000      1.000000
 -0.250000 -0.250000  0.500000      1.000000
 -0.125000 -0.250000  0.500000      1.000000
  0.000000 -0.125000  0.500000      1.000000
  0.125000 -0.125000  0.500000      1.000000
  0.250000 -0.125000  0.500000      1.000000
  0.375000 -0.125000  0.500000      1.000000
  0.500000 -0.125000  0.500000      1.000000
 -0.375000 -0.125000  0.500000      1.000000
 -0.250000 -0.125000  0.500000      1.000000
 -0.125000 -0.125000  0.500000      1.000000
  0.000000  0.000000 -0.333333      1.000000
  0.125000 -0.000000 -0.333333      1.000000
  0.250000 -0.000000 -0.333333      1.000000
  0.375000 -0.000000 -0.333333      1.000000
  0.500000 -0.000000 -0.333333      1.000000
 -0.375000  0.000000 -0.333333      1.000000
 -0.250000  0.000000 -0.333333      1.000000
 -0.125000  0.000000 -0.333333      1.000000
 -0.000000  0.125000 -0.333333      1.000000
  0.125000  0.125000 -0.333333      1.000000
  0.250000  0.125000 -0.333333      1.000000
  0.375000  0.125000 -0.333333      1.000000
  0.500000  0.125000 -0.333333      1.000000
 -0.375000  0.125000 -0.333333      1.000000
 -0.250000  0.125000 -0.333333      1.000000
 -0.125000  0.125000 -0.333333      1.000000
 -0.000000  0.250000 -0.333333      1.000000
  0.125000  0.250000 -0.333333      1.000000
  0.250000  0.250000 -0.333333      1.000000
  0.375000  0.250000 -0.333333      1.000000
  0.500000  0.250000 -0.333333      1.000000
 -0.375000  0.250000 -0.333333      1.000000
 -0.250000  0.250000 -0.333333      1.000000
 -0.125000  0.250000 -0.333333      1.000000
 -0.000000  0.375000 -0.333333      1.000000
  0.125000  0.375000 -0.333333      1.000000
  0.250000  0.375000 -0.333333      1.000000
  0.375000  0.375000 -0.333333      1.000000
  0.500000  0.375000 -0.333333      1.000000
 -0.375000  0.375000 -0.333333      1.000000
 -0.250000  0.375000 -0.333333      1.000000
 -0.125000  0.375000 -0.333333      1.000000
 -0.000000  0.500000 -0.333333      1.000000
  0.125000  0.500000 -0.333333      1.000000
  0.250000  0.500000 -0.333333      1.000000
  0.375000  0.500000 -0.333333      1.000000
  0.500000  0.500000 -0.333333      1.000000
 -0.375000  0.500000 -0.333333      1.000000
 -0.250000  0.500000 -0.333333      1.000000
 -0.125000  0.500000 -0.333333      1.000000
  0.000000 -0.375000 -0.333333      1.000000
  0.125000 -0.375000 -0.333333      1.000000
  0.250000 -0.375000 -0.333333      1.000000
  0.375000 -0.375000 -0.333333      1.000000
  0.500000 -0.375000 -0.333333      1.000000
 -0.375000 -0.375000 -0.333333      1.000000
 -0.250000 -0.375000 -0.333333      1.000000
 -0.125000 -0.375000 -0.333333      1.000000
  0.000000 -0.250000 -0.333333      1.000000
  0.125000 -0.250000 -0.333333      1.000000
  0.250000 -0.250000 -0.333333      1.000000
  0.375000 -0.250000 -0.333333      1.000000
  0.500000 -0.250000 -0.333333      1.000000
 -0.375000 -0.250000 -0.333333      1.000000
 -0.250000 -0.250000 -0.333333      1.000000
 -0.125000 -0.250000 -0.333333      1.000000
  0.000000 -0.125000 -0.333333      1.000000
  0.125000 -0.125000 -0.333333      1.000000
  0.250000 -0.125000 -0.333333      1.000000
  0.375000 -0.125000 -0.333333      1.000000
  0.500000 -0.125000 -0.333333      1.000000
 -0.375000 -0.125000 -0.333333      1.000000
 -0.250000 -0.125000 -0.333333      1.000000
 -0.125000 -0.125000 -0.333333      1.000000
  0.000000  0.000000 -0.166667      1.000000
  0.125000 -0.000000 -0.166667      1.000000
  0.250000 -0.000000 -0.166667      1.000000
  0.375000 -0.000000 -0.166667      1.000000
  0.500000 -0.000000 -0.166667      1.000000
 -0.375000  0.000000 -0.166667      1.000000
 -0.250000  0.000000 -0.166667      1.000000
 -0.125000  0.000000 -0.166667      1.000000
 -0.000000  0.125000 -0.166667      1.000000
  0.125000  0.125000 -0.166667      1.000000
  0.250000  0.125000 -0.166667      1.000000
  0.375000  0.125000 -0.166667      1.000000
  0.500000  0.125000 -0.166667      1.000000
 -0.375000  0.125000 -0.166667      1.000000
 -0.250000  0.125000 -0.166667      1.000000
 -0.125000  0.125000 -0.166667      1.000000
 -0.000000  0.250000 -0.166667      1.000000
  0.125000  0.250000 -0.166667      1.000000
  0.250000  0.250000 -0.166667      1.000000
  0.375000  0.250000 -0.166667      1.000000
  0.500000  0.250000 -0.166667      1.000000
 -0.375000  0.250000 -0.166667      1.000000
 -0.250000  0.250000 -0.166667      1.000000
 -0.125000  0.250000 -0.166667      1.000000
 -0.000000  0.375000 -0.166667      1.000000
  0.125000  0.375000 -0.166667      1.000000
  0.250000  0.375000 -0.166667      1.000000
  0.375000  0.375000 -0.166667      1.000000
  0.500000  0.375000 -0.166667      1.000000
 -0.375000  0.375000 -0.166667      1.000000
 -0.250000  0.375000 -0.166667      1.000000
 -0.125000  0.375000 -0.166667      1.000000
 -0.000000  0.500000 -0.166667      1.000000
  0.125000  0.500000 -0.166667      1.000000
  0.250000  0.500000 -0.166667      1.000000
  0.375000  0.500000 -0.166667      1.000000
  0.500000  0.500000 -0.166667      1.000000
 -0.375000  0.500000 -0.166667      1.000000
 -0.250000  0.500000 -0.166667      1.000000
 -0.125000  0.500000 -0.166667      1.000000
  0.000000 -0.375000 -0.166667      1.000000
  0.125000 -0.375000 -0.166667      1.000000
  0.250000 -0.375000 -0.166667      1.000000
  0.375000 -0.375000 -0.166667      1.000000
  0.500000 -0.375000 -0.166667      1.000000
 -0.375000 -0.375000 -0.166667      1.000000
 -0.250000 -0.375000 -0.166667      1.000000
 -0.125000 -0.375000 -0.166667      1.000000
  0.000000 -0.250000 -0.166667      1.000000
  0.125000 -0.250000 -0.166667      1.000000
  0.250000 -0.250000 -0.166667      1.000000
  0.375000 -0.250000 -0.166667      1.000000
  0.500000 -0.250000 -0.166667      1.000000
 -0.375000 -0.250000 -0.166667      1.000000
 -0.250000 -0.250000 -0.166667      1.000000
 -0.125000 -0.250000 -0.166667      1.000000
  0.000000 -0.125000 -0.166667      1.000000
  0.125000 -0.125000 -0.166667      1.000000
  0.250000 -0.125000 -0.166667      1.000000
  0.375000 -0.125000 -0.166667      1.000000
  0.500000 -0.125000 -0.166667      1.000000
 -0.375000 -0.125000 -0.166667      1.000000
 -0.250000 -0.125000 -0.166667      1.000000
 -0.125000 -0.125000 -0.166667      1.000000
 
 Following cartesian coordinates:
            Coordinates               Weight
  0.000000  0.000000  0.000000      1.000000
  0.030802 -0.030802  0.000000      1.000000
  0.061603 -0.061603  0.000000      1.000000
  0.092405 -0.092405  0.000000      1.000000
  0.123207 -0.123207  0.000000      1.000000
 -0.092405  0.092405  0.000000      1.000000
 -0.061603  0.061603  0.000000      1.000000
 -0.030802  0.030802  0.000000      1.000000
  0.030802  0.030802  0.000000      1.000000
  0.061603 -0.000000  0.000000      1.000000
  0.092405 -0.030802  0.000000      1.000000
  0.123207 -0.061603  0.000000      1.000000
  0.154008 -0.092405  0.000000      1.000000
 -0.061603  0.123207  0.000000      1.000000
 -0.030802  0.092405  0.000000      1.000000
 -0.000000  0.061603  0.000000      1.000000
  0.061603  0.061603  0.000000      1.000000
  0.092405  0.030802  0.000000      1.000000
  0.123207 -0.000000  0.000000      1.000000
  0.154008 -0.030802  0.000000      1.000000
  0.184810 -0.061603  0.000000      1.000000
 -0.030802  0.154008  0.000000      1.000000
 -0.000000  0.123207  0.000000      1.000000
  0.030802  0.092405  0.000000      1.000000
  0.092405  0.092405  0.000000      1.000000
  0.123207  0.061603  0.000000      1.000000
  0.154008  0.030802  0.000000      1.000000
  0.184810  0.000000  0.000000      1.000000
  0.215612 -0.030802  0.000000      1.000000
  0.000000  0.184810  0.000000      1.000000
  0.030802  0.154008  0.000000      1.000000
  0.061603  0.123207  0.000000      1.000000
  0.123207  0.123207  0.000000      1.000000
  0.154008  0.092405  0.000000      1.000000
  0.184810  0.061603  0.000000      1.000000
  0.215612  0.030802  0.000000      1.000000
  0.246413 -0.000000  0.000000      1.000000
  0.030802  0.215612  0.000000      1.000000
  0.061603  0.184810  0.000000      1.000000
  0.092405  0.154008  0.000000      1.000000
 -0.092405 -0.092405  0.000000      1.000000
 -0.061603 -0.123207  0.000000      1.000000
 -0.030802 -0.154008  0.000000      1.000000
 -0.000000 -0.184810  0.000000      1.000000
  0.030802 -0.215612  0.000000      1.000000
 -0.184810 -0.000000  0.000000      1.000000
 -0.154008 -0.030802  0.000000      1.000000
 -0.123207 -0.061603  0.000000      1.000000
 -0.061603 -0.061603  0.000000      1.000000
 -0.030802 -0.092405  0.000000      1.000000
  0.000000 -0.123207  0.000000      1.000000
  0.030802 -0.154008  0.000000      1.000000
  0.061603 -0.184810  0.000000      1.000000
 -0.154008  0.030802  0.000000      1.000000
 -0.123207  0.000000  0.000000      1.000000
 -0.092405 -0.030802  0.000000      1.000000
 -0.030802 -0.030802  0.000000      1.000000
  0.000000 -0.061603  0.000000      1.000000
  0.030802 -0.092405  0.000000      1.000000
  0.061603 -0.123207  0.000000      1.000000
  0.092405 -0.154008  0.000000      1.000000
 -0.123207  0.061603  0.000000      1.000000
 -0.092405  0.030802  0.000000      1.000000
 -0.061603  0.000000  0.000000      1.000000
  0.000000  0.000000  0.041070      1.000000
  0.030802 -0.030802  0.041070      1.000000
  0.061603 -0.061603  0.041070      1.000000
  0.092405 -0.092405  0.041070      1.000000
  0.123207 -0.123207  0.041070      1.000000
 -0.092405  0.092405  0.041070      1.000000
 -0.061603  0.061603  0.041070      1.000000
 -0.030802  0.030802  0.041070      1.000000
  0.030802  0.030802  0.041070      1.000000
  0.061603 -0.000000  0.041070      1.000000
  0.092405 -0.030802  0.041070      1.000000
  0.123207 -0.061603  0.041070      1.000000
  0.154008 -0.092405  0.041070      1.000000
 -0.061603  0.123207  0.041070      1.000000
 -0.030802  0.092405  0.041070      1.000000
 -0.000000  0.061603  0.041070      1.000000
  0.061603  0.061603  0.041070      1.000000
  0.092405  0.030802  0.041070      1.000000
  0.123207 -0.000000  0.041070      1.000000
  0.154008 -0.030802  0.041070      1.000000
  0.184810 -0.061603  0.041070      1.000000
 -0.030802  0.154008  0.041070      1.000000
 -0.000000  0.123207  0.041070      1.000000
  0.030802  0.092405  0.041070      1.000000
  0.092405  0.092405  0.041070      1.000000
  0.123207  0.061603  0.041070      1.000000
  0.154008  0.030802  0.041070      1.000000
  0.184810  0.000000  0.041070      1.000000
  0.215612 -0.030802  0.041070      1.000000
  0.000000  0.184810  0.041070      1.000000
  0.030802  0.154008  0.041070      1.000000
  0.061603  0.123207  0.041070      1.000000
  0.123207  0.123207  0.041070      1.000000
  0.154008  0.092405  0.041070      1.000000
  0.184810  0.061603  0.041070      1.000000
  0.215612  0.030802  0.041070      1.000000
  0.246413 -0.000000  0.041070      1.000000
  0.030802  0.215612  0.041070      1.000000
  0.061603  0.184810  0.041070      1.000000
  0.092405  0.154008  0.041070      1.000000
 -0.092405 -0.092405  0.041070      1.000000
 -0.061603 -0.123207  0.041070      1.000000
 -0.030802 -0.154008  0.041070      1.000000
 -0.000000 -0.184810  0.041070      1.000000
  0.030802 -0.215612  0.041070      1.000000
 -0.184810 -0.000000  0.041070      1.000000
 -0.154008 -0.030802  0.041070      1.000000
 -0.123207 -0.061603  0.041070      1.000000
 -0.061603 -0.061603  0.041070      1.000000
 -0.030802 -0.092405  0.041070      1.000000
  0.000000 -0.123207  0.041070      1.000000
  0.030802 -0.154008  0.041070      1.000000
  0.061603 -0.184810  0.041070      1.000000
 -0.154008  0.030802  0.041070      1.000000
 -0.123207  0.000000  0.041070      1.000000
 -0.092405 -0.030802  0.041070      1.000000
 -0.030802 -0.030802  0.041070      1.000000
  0.000000 -0.061603  0.041070      1.000000
  0.030802 -0.092405  0.041070      1.000000
  0.061603 -0.123207  0.041070      1.000000
  0.092405 -0.154008  0.041070      1.000000
 -0.123207  0.061603  0.041070      1.000000
 -0.092405  0.030802  0.041070      1.000000
 -0.061603  0.000000  0.041070      1.000000
  0.000000  0.000000  0.082141      1.000000
  0.030802 -0.030802  0.082141      1.000000
  0.061603 -0.061603  0.082141      1.000000
  0.092405 -0.092405  0.082141      1.000000
  0.123207 -0.123207  0.082141      1.000000
 -0.092405  0.092405  0.082141      1.000000
 -0.061603  0.061603  0.082141      1.000000
 -0.030802  0.030802  0.082141      1.000000
  0.030802  0.030802  0.082141      1.000000
  0.061603 -0.000000  0.082141      1.000000
  0.092405 -0.030802  0.082141      1.000000
  0.123207 -0.061603  0.082141      1.000000
  0.154008 -0.092405  0.082141      1.000000
 -0.061603  0.123207  0.082141      1.000000
 -0.030802  0.092405  0.082141      1.000000
 -0.000000  0.061603  0.082141      1.000000
  0.061603  0.061603  0.082141      1.000000
  0.092405  0.030802  0.082141      1.000000
  0.123207 -0.000000  0.082141      1.000000
  0.154008 -0.030802  0.082141      1.000000
  0.184810 -0.061603  0.082141      1.000000
 -0.030802  0.154008  0.082141      1.000000
 -0.000000  0.123207  0.082141      1.000000
  0.030802  0.092405  0.082141      1.000000
  0.092405  0.092405  0.082141      1.000000
  0.123207  0.061603  0.082141      1.000000
  0.154008  0.030802  0.082141      1.000000
  0.184810  0.000000  0.082141      1.000000
  0.215612 -0.030802  0.082141      1.000000
  0.000000  0.184810  0.082141      1.000000
  0.030802  0.154008  0.082141      1.000000
  0.061603  0.123207  0.082141      1.000000
  0.123207  0.123207  0.082141      1.000000
  0.154008  0.092405  0.082141      1.000000
  0.184810  0.061603  0.082141      1.000000
  0.215612  0.030802  0.082141      1.000000
  0.246413 -0.000000  0.082141      1.000000
  0.030802  0.215612  0.082141      1.000000
  0.061603  0.184810  0.082141      1.000000
  0.092405  0.154008  0.082141      1.000000
 -0.092405 -0.092405  0.082141      1.000000
 -0.061603 -0.123207  0.082141      1.000000
 -0.030802 -0.154008  0.082141      1.000000
 -0.000000 -0.184810  0.082141      1.000000
  0.030802 -0.215612  0.082141      1.000000
 -0.184810 -0.000000  0.082141      1.000000
 -0.154008 -0.030802  0.082141      1.000000
 -0.123207 -0.061603  0.082141      1.000000
 -0.061603 -0.061603  0.082141      1.000000
 -0.030802 -0.092405  0.082141      1.000000
  0.000000 -0.123207  0.082141      1.000000
  0.030802 -0.154008  0.082141      1.000000
  0.061603 -0.184810  0.082141      1.000000
 -0.154008  0.030802  0.082141      1.000000
 -0.123207  0.000000  0.082141      1.000000
 -0.092405 -0.030802  0.082141      1.000000
 -0.030802 -0.030802  0.082141      1.000000
  0.000000 -0.061603  0.082141      1.000000
  0.030802 -0.092405  0.082141      1.000000
  0.061603 -0.123207  0.082141      1.000000
  0.092405 -0.154008  0.082141      1.000000
 -0.123207  0.061603  0.082141      1.000000
 -0.092405  0.030802  0.082141      1.000000
 -0.061603  0.000000  0.082141      1.000000
  0.000000  0.000000  0.123211      1.000000
  0.030802 -0.030802  0.123211      1.000000
  0.061603 -0.061603  0.123211      1.000000
  0.092405 -0.092405  0.123211      1.000000
  0.123207 -0.123207  0.123211      1.000000
 -0.092405  0.092405  0.123211      1.000000
 -0.061603  0.061603  0.123211      1.000000
 -0.030802  0.030802  0.123211      1.000000
  0.030802  0.030802  0.123211      1.000000
  0.061603 -0.000000  0.123211      1.000000
  0.092405 -0.030802  0.123211      1.000000
  0.123207 -0.061603  0.123211      1.000000
  0.154008 -0.092405  0.123211      1.000000
 -0.061603  0.123207  0.123211      1.000000
 -0.030802  0.092405  0.123211      1.000000
 -0.000000  0.061603  0.123211      1.000000
  0.061603  0.061603  0.123211      1.000000
  0.092405  0.030802  0.123211      1.000000
  0.123207 -0.000000  0.123211      1.000000
  0.154008 -0.030802  0.123211      1.000000
  0.184810 -0.061603  0.123211      1.000000
 -0.030802  0.154008  0.123211      1.000000
 -0.000000  0.123207  0.123211      1.000000
  0.030802  0.092405  0.123211      1.000000
  0.092405  0.092405  0.123211      1.000000
  0.123207  0.061603  0.123211      1.000000
  0.154008  0.030802  0.123211      1.000000
  0.184810  0.000000  0.123211      1.000000
  0.215612 -0.030802  0.123211      1.000000
  0.000000  0.184810  0.123211      1.000000
  0.030802  0.154008  0.123211      1.000000
  0.061603  0.123207  0.123211      1.000000
  0.123207  0.123207  0.123211      1.000000
  0.154008  0.092405  0.123211      1.000000
  0.184810  0.061603  0.123211      1.000000
  0.215612  0.030802  0.123211      1.000000
  0.246413 -0.000000  0.123211      1.000000
  0.030802  0.215612  0.123211      1.000000
  0.061603  0.184810  0.123211      1.000000
  0.092405  0.154008  0.123211      1.000000
 -0.092405 -0.092405  0.123211      1.000000
 -0.061603 -0.123207  0.123211      1.000000
 -0.030802 -0.154008  0.123211      1.000000
 -0.000000 -0.184810  0.123211      1.000000
  0.030802 -0.215612  0.123211      1.000000
 -0.184810 -0.000000  0.123211      1.000000
 -0.154008 -0.030802  0.123211      1.000000
 -0.123207 -0.061603  0.123211      1.000000
 -0.061603 -0.061603  0.123211      1.000000
 -0.030802 -0.092405  0.123211      1.000000
  0.000000 -0.123207  0.123211      1.000000
  0.030802 -0.154008  0.123211      1.000000
  0.061603 -0.184810  0.123211      1.000000
 -0.154008  0.030802  0.123211      1.000000
 -0.123207  0.000000  0.123211      1.000000
 -0.092405 -0.030802  0.123211      1.000000
 -0.030802 -0.030802  0.123211      1.000000
  0.000000 -0.061603  0.123211      1.000000
  0.030802 -0.092405  0.123211      1.000000
  0.061603 -0.123207  0.123211      1.000000
  0.092405 -0.154008  0.123211      1.000000
 -0.123207  0.061603  0.123211      1.000000
 -0.092405  0.030802  0.123211      1.000000
 -0.061603  0.000000  0.123211      1.000000
  0.000000  0.000000 -0.082141      1.000000
  0.030802 -0.030802 -0.082141      1.000000
  0.061603 -0.061603 -0.082141      1.000000
  0.092405 -0.092405 -0.082141      1.000000
  0.123207 -0.123207 -0.082141      1.000000
 -0.092405  0.092405 -0.082141      1.000000
 -0.061603  0.061603 -0.082141      1.000000
 -0.030802  0.030802 -0.082141      1.000000
  0.030802  0.030802 -0.082141      1.000000
  0.061603 -0.000000 -0.082141      1.000000
  0.092405 -0.030802 -0.082141      1.000000
  0.123207 -0.061603 -0.082141      1.000000
  0.154008 -0.092405 -0.082141      1.000000
 -0.061603  0.123207 -0.082141      1.000000
 -0.030802  0.092405 -0.082141      1.000000
 -0.000000  0.061603 -0.082141      1.000000
  0.061603  0.061603 -0.082141      1.000000
  0.092405  0.030802 -0.082141      1.000000
  0.123207 -0.000000 -0.082141      1.000000
  0.154008 -0.030802 -0.082141      1.000000
  0.184810 -0.061603 -0.082141      1.000000
 -0.030802  0.154008 -0.082141      1.000000
 -0.000000  0.123207 -0.082141      1.000000
  0.030802  0.092405 -0.082141      1.000000
  0.092405  0.092405 -0.082141      1.000000
  0.123207  0.061603 -0.082141      1.000000
  0.154008  0.030802 -0.082141      1.000000
  0.184810  0.000000 -0.082141      1.000000
  0.215612 -0.030802 -0.082141      1.000000
  0.000000  0.184810 -0.082141      1.000000
  0.030802  0.154008 -0.082141      1.000000
  0.061603  0.123207 -0.082141      1.000000
  0.123207  0.123207 -0.082141      1.000000
  0.154008  0.092405 -0.082141      1.000000
  0.184810  0.061603 -0.082141      1.000000
  0.215612  0.030802 -0.082141      1.000000
  0.246413 -0.000000 -0.082141      1.000000
  0.030802  0.215612 -0.082141      1.000000
  0.061603  0.184810 -0.082141      1.000000
  0.092405  0.154008 -0.082141      1.000000
 -0.092405 -0.092405 -0.082141      1.000000
 -0.061603 -0.123207 -0.082141      1.000000
 -0.030802 -0.154008 -0.082141      1.000000
 -0.000000 -0.184810 -0.082141      1.000000
  0.030802 -0.215612 -0.082141      1.000000
 -0.184810 -0.000000 -0.082141      1.000000
 -0.154008 -0.030802 -0.082141      1.000000
 -0.123207 -0.061603 -0.082141      1.000000
 -0.061603 -0.061603 -0.082141      1.000000
 -0.030802 -0.092405 -0.082141      1.000000
  0.000000 -0.123207 -0.082141      1.000000
  0.030802 -0.154008 -0.082141      1.000000
  0.061603 -0.184810 -0.082141      1.000000
 -0.154008  0.030802 -0.082141      1.000000
 -0.123207  0.000000 -0.082141      1.000000
 -0.092405 -0.030802 -0.082141      1.000000
 -0.030802 -0.030802 -0.082141      1.000000
  0.000000 -0.061603 -0.082141      1.000000
  0.030802 -0.092405 -0.082141      1.000000
  0.061603 -0.123207 -0.082141      1.000000
  0.092405 -0.154008 -0.082141      1.000000
 -0.123207  0.061603 -0.082141      1.000000
 -0.092405  0.030802 -0.082141      1.000000
 -0.061603  0.000000 -0.082141      1.000000
  0.000000  0.000000 -0.041070      1.000000
  0.030802 -0.030802 -0.041070      1.000000
  0.061603 -0.061603 -0.041070      1.000000
  0.092405 -0.092405 -0.041070      1.000000
  0.123207 -0.123207 -0.041070      1.000000
 -0.092405  0.092405 -0.041070      1.000000
 -0.061603  0.061603 -0.041070      1.000000
 -0.030802  0.030802 -0.041070      1.000000
  0.030802  0.030802 -0.041070      1.000000
  0.061603 -0.000000 -0.041070      1.000000
  0.092405 -0.030802 -0.041070      1.000000
  0.123207 -0.061603 -0.041070      1.000000
  0.154008 -0.092405 -0.041070      1.000000
 -0.061603  0.123207 -0.041070      1.000000
 -0.030802  0.092405 -0.041070      1.000000
 -0.000000  0.061603 -0.041070      1.000000
  0.061603  0.061603 -0.041070      1.000000
  0.092405  0.030802 -0.041070      1.000000
  0.123207 -0.000000 -0.041070      1.000000
  0.154008 -0.030802 -0.041070      1.000000
  0.184810 -0.061603 -0.041070      1.000000
 -0.030802  0.154008 -0.041070      1.000000
 -0.000000  0.123207 -0.041070      1.000000
  0.030802  0.092405 -0.041070      1.000000
  0.092405  0.092405 -0.041070      1.000000
  0.123207  0.061603 -0.041070      1.000000
  0.154008  0.030802 -0.041070      1.000000
  0.184810  0.000000 -0.041070      1.000000
  0.215612 -0.030802 -0.041070      1.000000
  0.000000  0.184810 -0.041070      1.000000
  0.030802  0.154008 -0.041070      1.000000
  0.061603  0.123207 -0.041070      1.000000
  0.123207  0.123207 -0.041070      1.000000
  0.154008  0.092405 -0.041070      1.000000
  0.184810  0.061603 -0.041070      1.000000
  0.215612  0.030802 -0.041070      1.000000
  0.246413 -0.000000 -0.041070      1.000000
  0.030802  0.215612 -0.041070      1.000000
  0.061603  0.184810 -0.041070      1.000000
  0.092405  0.154008 -0.041070      1.000000
 -0.092405 -0.092405 -0.041070      1.000000
 -0.061603 -0.123207 -0.041070      1.000000
 -0.030802 -0.154008 -0.041070      1.000000
 -0.000000 -0.184810 -0.041070      1.000000
  0.030802 -0.215612 -0.041070      1.000000
 -0.184810 -0.000000 -0.041070      1.000000
 -0.154008 -0.030802 -0.041070      1.000000
 -0.123207 -0.061603 -0.041070      1.000000
 -0.061603 -0.061603 -0.041070      1.000000
 -0.030802 -0.092405 -0.041070      1.000000
  0.000000 -0.123207 -0.041070      1.000000
  0.030802 -0.154008 -0.041070      1.000000
  0.061603 -0.184810 -0.041070      1.000000
 -0.154008  0.030802 -0.041070      1.000000
 -0.123207  0.000000 -0.041070      1.000000
 -0.092405 -0.030802 -0.041070      1.000000
 -0.030802 -0.030802 -0.041070      1.000000
  0.000000 -0.061603 -0.041070      1.000000
  0.030802 -0.092405 -0.041070      1.000000
  0.061603 -0.123207 -0.041070      1.000000
  0.092405 -0.154008 -0.041070      1.000000
 -0.123207  0.061603 -0.041070      1.000000
 -0.092405  0.030802 -0.041070      1.000000
 -0.061603  0.000000 -0.041070      1.000000
 


--------------------------------------------------------------------------------------------------------




 Dimension of arrays:
   k-points           NKPTS =    384   k-points in BZ     NKDIM =    384   number of bands    NBANDS=     32
   number of dos      NEDOS =    301   number of ions     NIONS =      4
   non local maximal  LDIM  =      6   non local SUM 2l+1 LMDIM =     18
   total plane-waves  NPLWV =  18432
   max r-space proj   IRMAX =      1   max aug-charges    IRDMAX=  21101
   dimension x,y,z NGX =    24 NGY =   24 NGZ =   32
   dimension x,y,z NGXF=    48 NGYF=   48 NGZF=   64
   support grid    NGXF=    48 NGYF=   48 NGZF=   64
   ions per type =               2   2
   NGX,Y,Z   is equivalent  to a cutoff of  13.90, 13.90, 13.11 a.u.
   NGXF,Y,Z  is equivalent  to a cutoff of  27.81, 27.81, 26.22 a.u.

 SYSTEM =  unknown system                          
 POSCAR =  Ga N                                    

 Startparameter for this run:
   NWRITE =      2    write-flag & timer
   PREC   = accura    normal or accurate (medium, high low for compatibility)
   ISTART =      0    job   : 0-new  1-cont  2-samecut
   ICHARG =      2    charge: 1-file 2-atom 10-const
   ISPIN  =      1    spin polarized calculation?
   LNONCOLLINEAR =      F non collinear calculations
   LSORBIT =      F    spin-orbit coupling
   INIWAV =      1    electr: 0-lowe 1-rand  2-diag
   LASPH  =      F    aspherical Exc in radial PAW
 Electronic Relaxation 1
   ENCUT  =  600.0 eV  44.10 Ry    6.64 a.u.   5.73  5.73  8.10*2*pi/ulx,y,z
   ENINI  =  600.0     initial cutoff
   ENAUG  =  627.1 eV  augmentation charge cutoff
   NELM   =     60;   NELMIN=  2; NELMDL= -5     # of ELM steps 
   EDIFF  = 0.1E-06   stopping-criterion for ELM
   LREAL  =      F    real-space projection
   NLSPLINE    = F    spline interpolate recip. space projectors
   LCOMPAT=      F    compatible to vasp.4.4
   GGA_COMPAT  = T    GGA compatible to vasp.4.4-vasp.4.6
   LMAXPAW     = -100 max onsite density
   LMAXMIX     =    2 max onsite mixed and CHGCAR
   VOSKOWN=      0    Vosko Wilk Nusair interpolation
   ROPT   =    0.00000   0.00000
 Ionic relaxation
   EDIFFG = 0.1E-05   stopping-criterion for IOM
   NSW    =      0    number of steps for IOM
   NBLOCK =      1;   KBLOCK =      1    inner block; outer block 
   IBRION =     -1    ionic relax: 0-MD 1-quasi-New 2-CG
   NFREE  =      0    steps in history (QN), initial steepest desc. (CG)
   ISIF   =      2    stress and relaxation
   IWAVPR =     10    prediction:  0-non 1-charg 2-wave 3-comb
   ISYM   =     -1    0-nonsym 1-usesym 2-fastsym
   LCORR  =      T    Harris-Foulkes like correction to forces

   POTIM  = 0.5000    time-step for ionic-motion
   TEIN   =    0.0    initial temperature
   TEBEG  =    0.0;   TEEND  =   0.0 temperature during run
   SMASS  =  -3.00    Nose mass-parameter (am)
   estimated Nose-frequenzy (Omega)   =  0.10E-29 period in steps = 0.13E+47 mass=  -0.188E-27a.u.
   SCALEE = 1.0000    scale energy and forces
   NPACO  =    256;   APACO  = 10.0  distance and # of slots for P.C.
   PSTRESS=    0.0 pullay stress

  Mass of Ions in am
   POMASS =  69.72 14.00
  Ionic Valenz
   ZVAL   =  13.00  5.00
  Atomic Wigner-Seitz radii
   RWIGS  =  -1.00 -1.00
  virtual crystal weights 
   VCA    =   1.00  1.00
   NELECT =      36.0000    total number of electrons
   NUPDOWN=      -1.0000    fix difference up-down

 DOS related values:
   EMIN   =  10.00;   EMAX   =-10.00  energy-range for DOS
   EFERMI =   0.00
   ISMEAR =     0;   SIGMA  =   0.05  broadening in eV -4-tet -1-fermi 0-gaus

 Electronic relaxation 2 (details)
   IALGO  =     38    algorithm
   LDIAG  =      T    sub-space diagonalisation (order eigenvalues)
   LSUBROT=      F    optimize rotation matrix (better conditioning)
   TURBO    =      0    0=normal 1=particle mesh
   IRESTART =      0    0=no restart 2=restart with 2 vectors
   NREBOOT  =      0    no. of reboots
   NMIN     =      0    reboot dimension
   EREF     =   0.00    reference energy to select bands
   IMIX   =      4    mixing-type and parameters
     AMIX     =   0.40;   BMIX     =  1.00
     AMIX_MAG =   1.60;   BMIX_MAG =  1.00
     AMIN     =   0.10
     WC   =   100.;   INIMIX=   1;  MIXPRE=   1;  MAXMIX= -45

 Intra band minimization:
   WEIMIN = 0.0000     energy-eigenvalue tresh-hold
   EBREAK =  0.78E-09  absolut break condition
   DEPER  =   0.30     relativ break condition  

   TIME   =   0.40     timestep for ELM

  volume/ion in A,a.u.               =       8.35        56.38
  Fermi-wavevector in a.u.,A,eV,Ry     =   1.678245  3.171424 38.320907  2.816507
  Thomas-Fermi vector in A             =   2.762368
 
 Write flags
   LWAVE        =      F    write WAVECAR
   LDOWNSAMPLE  =      F    k-point downsampling of WAVECAR
   LCHARG       =      F    write CHGCAR
   LVTOT        =      F    write LOCPOT, total local potential
   LVHAR        =      F    write LOCPOT, Hartree potential only
   LELF         =      F    write electronic localiz. function (ELF)
   LORBIT       =      0    0 simple, 1 ext, 2 COOP (PROOUT), +10 PAW based schemes


 Dipole corrections
   LMONO  =      F    monopole corrections only (constant potential shift)
   LDIPOL =      F    correct potential (dipole corrections)
   IDIPOL =      0    1-x, 2-y, 3-z, 4-all directions 
   EPSILON=  1.0000000 bulk dielectric constant

 Exchange correlation treatment:
   GGA     =    PE    GGA type
   LEXCH   =     8    internal setting for exchange type
   LIBXC   =     F    Libxc                    
   VOSKOWN =     0    Vosko Wilk Nusair interpolation
   LHFCALC =     F    Hartree Fock is set to
   LHFONE  =     F    Hartree Fock one center treatment
   AEXX    =    0.0000 exact exchange contribution

 Linear response parameters
   LEPSILON=     F    determine dielectric tensor
   LRPA    =     F    only Hartree local field effects (RPA)
   LNABLA  =     F    use nabla operator in PAW spheres
   LVEL    =     F    velocity operator in full k-point grid
   CSHIFT  =0.1000    complex shift for real part using Kramers Kronig
   OMEGAMAX=  -1.0    maximum frequency
   DEG_THRESHOLD= 0.2000000E-02 threshold for treating states as degnerate
   RTIME   =   -0.100 relaxation time in fs
  (WPLASMAI=    0.000 imaginary part of plasma frequency in eV, 0.658/RTIME)
   DFIELD  = 0.0000000 0.0000000 0.0000000 field for delta impulse in time
 
  Optional k-point grid parameters
   LKPOINTS_OPT  =     F    use optional k-point grid
   KPOINTS_OPT_MODE=     1    mode for optional k-point grid
 
 Orbital magnetization related:
   ORBITALMAG=     F  switch on orbital magnetization
   LCHIMAG   =     F  perturbation theory with respect to B field
   DQ        =  0.001000  dq finite difference perturbation B field
   LLRAUG    =     F  two centre corrections for induced B field



--------------------------------------------------------------------------------------------------------


 Static calculation
 charge density and potential will be updated during run
 non-spin polarized calculation
 Variant of blocked Davidson
 Davidson routine will perform the subspace rotation
 perform sub-space diagonalisation
    after iterative eigenvector-optimisation
 modified Broyden-mixing scheme, WC =      100.0
 initial mixing is a Kerker type mixing with AMIX =  0.4000 and BMIX =      1.0000
 Hartree-type preconditioning will be used
 using additional bands           14
 reciprocal scheme for non local part
 use partial core corrections
 calculate Harris-corrections to forces 
   (improved forces if not selfconsistent)
 use gradient corrections 
 use of overlap-Matrix (Vanderbilt PP)
 Gauss-broadening in eV      SIGMA  =   0.05


--------------------------------------------------------------------------------------------------------


  energy-cutoff  :      600.00
  volume of cell :       33.42
      direct lattice vectors                 reciprocal lattice vectors
     2.029111234 -2.029111234  0.000000000     0.246413302 -0.246413302  0.000000000
     2.029111234  2.029111234  0.000000000     0.246413302  0.246413302  0.000000000
     0.000000000  0.000000000  4.058064931     0.000000000  0.000000000  0.246422868

  length of vectors
     2.869596627  2.869596627  4.058064931     0.348481034  0.348481034  0.246422868


 
 k-points in units of 2pi/SCALE and weight: KPOINTS created by Atomic Simulation Env
   0.00000000  0.00000000  0.00000000       0.003
   0.03080166 -0.03080166  0.00000000       0.003
   0.06160333 -0.06160333  0.00000000       0.003
   0.09240499 -0.09240499  0.00000000       0.003
   0.12320665 -0.12320665  0.00000000       0.003
  -0.09240499  0.09240499  0.00000000       0.003
  -0.06160333  0.06160333  0.00000000       0.003
  -0.03080166  0.03080166  0.00000000       0.003
   0.03080166  0.03080166  0.00000000       0.003
   0.06160333  0.00000000  0.00000000       0.003
   0.09240499 -0.03080166  0.00000000       0.003
   0.12320665 -0.06160333  0.00000000       0.003
   0.15400831 -0.09240499  0.00000000       0.003
  -0.06160333  0.12320665  0.00000000       0.003
  -0.03080166  0.09240499  0.00000000       0.003
   0.00000000  0.06160333  0.00000000       0.003
   0.06160333  0.06160333  0.00000000       0.003
   0.09240499  0.03080166  0.00000000       0.003
   0.12320665  0.00000000  0.00000000       0.003
   0.15400831 -0.03080166  0.00000000       0.003
   0.18480998 -0.06160333  0.00000000       0.003
  -0.03080166  0.15400831  0.00000000       0.003
   0.00000000  0.12320665  0.00000000       0.003
   0.03080166  0.09240499  0.00000000       0.003
   0.09240499  0.09240499  0.00000000       0.003
   0.12320665  0.06160333  0.00000000       0.003
   0.15400831  0.03080166  0.00000000       0.003
   0.18480998 -0.00000000  0.00000000       0.003
   0.21561164 -0.03080166  0.00000000       0.003
  -0.00000000  0.18480998  0.00000000       0.003
   0.03080166  0.15400831  0.00000000       0.003
   0.06160333  0.12320665  0.00000000       0.003
   0.12320665  0.12320665  0.00000000       0.003
   0.15400831  0.09240499  0.00000000       0.003
   0.18480998  0.06160333  0.00000000       0.003
   0.21561164  0.03080166  0.00000000       0.003
   0.24641330  0.00000000  0.00000000       0.003
   0.03080166  0.21561164  0.00000000       0.003
   0.06160333  0.18480998  0.00000000       0.003
   0.09240499  0.15400831  0.00000000       0.003
  -0.09240499 -0.09240499  0.00000000       0.003
  -0.06160333 -0.12320665  0.00000000       0.003
  -0.03080166 -0.15400831  0.00000000       0.003
   0.00000000 -0.18480998  0.00000000       0.003
   0.03080166 -0.21561164  0.00000000       0.003
  -0.18480998  0.00000000  0.00000000       0.003
  -0.15400831 -0.03080166  0.00000000       0.003
  -0.12320665 -0.06160333  0.00000000       0.003
  -0.06160333 -0.06160333  0.00000000       0.003
  -0.03080166 -0.09240499  0.00000000       0.003
  -0.00000000 -0.12320665  0.00000000       0.003
   0.03080166 -0.15400831  0.00000000       0.003
   0.06160333 -0.18480998  0.00000000       0.003
  -0.15400831  0.03080166  0.00000000       0.003
  -0.12320665 -0.00000000  0.00000000       0.003
  -0.09240499 -0.03080166  0.00000000       0.003
  -0.03080166 -0.03080166  0.00000000       0.003
  -0.00000000 -0.06160333  0.00000000       0.003
   0.03080166 -0.09240499  0.00000000       0.003
   0.06160333 -0.12320665  0.00000000       0.003
   0.09240499 -0.15400831  0.00000000       0.003
  -0.12320665  0.06160333  0.00000000       0.003
  -0.09240499  0.03080166  0.00000000       0.003
  -0.06160333 -0.00000000  0.00000000       0.003
   0.00000000  0.00000000  0.04107048       0.003
   0.03080166 -0.03080166  0.04107048       0.003
   0.06160333 -0.06160333  0.04107048       0.003
   0.09240499 -0.09240499  0.04107048       0.003
   0.12320665 -0.12320665  0.04107048       0.003
  -0.09240499  0.09240499  0.04107048       0.003
  -0.06160333  0.06160333  0.04107048       0.003
  -0.03080166  0.03080166  0.04107048       0.003
   0.03080166  0.03080166  0.04107048       0.003
   0.06160333  0.00000000  0.04107048       0.003
   0.09240499 -0.03080166  0.04107048       0.003
   0.12320665 -0.06160333  0.04107048       0.003
   0.15400831 -0.09240499  0.04107048       0.003
  -0.06160333  0.12320665  0.04107048       0.003
  -0.03080166  0.09240499  0.04107048       0.003
   0.00000000  0.06160333  0.04107048       0.003
   0.06160333  0.06160333  0.04107048       0.003
   0.09240499  0.03080166  0.04107048       0.003
   0.12320665  0.00000000  0.04107048       0.003
   0.15400831 -0.03080166  0.04107048       0.003
   0.18480998 -0.06160333  0.04107048       0.003
  -0.03080166  0.15400831  0.04107048       0.003
   0.00000000  0.12320665  0.04107048       0.003
   0.03080166  0.09240499  0.04107048       0.003
   0.09240499  0.09240499  0.04107048       0.003
   0.12320665  0.06160333  0.04107048       0.003
   0.15400831  0.03080166  0.04107048       0.003
   0.18480998 -0.00000000  0.04107048       0.003
   0.21561164 -0.03080166  0.04107048       0.003
  -0.00000000  0.18480998  0.04107048       0.003
   0.03080166  0.15400831  0.04107048       0.003
   0.06160333  0.12320665  0.04107048       0.003
   0.12320665  0.12320665  0.04107048       0.003
   0.15400831  0.09240499  0.04107048       0.003
   0.18480998  0.06160333  0.04107048       0.003
   0.21561164  0.03080166  0.04107048       0.003
   0.24641330  0.00000000  0.04107048       0.003
   0.03080166  0.21561164  0.04107048       0.003
   0.06160333  0.18480998  0.04107048       0.003
   0.09240499  0.15400831  0.04107048       0.003
  -0.09240499 -0.09240499  0.04107048       0.003
  -0.06160333 -0.12320665  0.04107048       0.003
  -0.03080166 -0.15400831  0.04107048       0.003
   0.00000000 -0.18480998  0.04107048       0.003
   0.03080166 -0.21561164  0.04107048       0.003
  -0.18480998  0.00000000  0.04107048       0.003
  -0.15400831 -0.03080166  0.04107048       0.003
  -0.12320665 -0.06160333  0.04107048       0.003
  -0.06160333 -0.06160333  0.04107048       0.003
  -0.03080166 -0.09240499  0.04107048       0.003
  -0.00000000 -0.12320665  0.04107048       0.003
   0.03080166 -0.15400831  0.04107048       0.003
   0.06160333 -0.18480998  0.04107048       0.003
  -0.15400831  0.03080166  0.04107048       0.003
  -0.12320665 -0.00000000  0.04107048       0.003
  -0.09240499 -0.03080166  0.04107048       0.003
  -0.03080166 -0.03080166  0.04107048       0.003
  -0.00000000 -0.06160333  0.04107048       0.003
   0.03080166 -0.09240499  0.04107048       0.003
   0.06160333 -0.12320665  0.04107048       0.003
   0.09240499 -0.15400831  0.04107048       0.003
  -0.12320665  0.06160333  0.04107048       0.003
  -0.09240499  0.03080166  0.04107048       0.003
  -0.06160333 -0.00000000  0.04107048       0.003
   0.00000000  0.00000000  0.08214096       0.003
   0.03080166 -0.03080166  0.08214096       0.003
   0.06160333 -0.06160333  0.08214096       0.003
   0.09240499 -0.09240499  0.08214096       0.003
   0.12320665 -0.12320665  0.08214096       0.003
  -0.09240499  0.09240499  0.08214096       0.003
  -0.06160333  0.06160333  0.08214096       0.003
  -0.03080166  0.03080166  0.08214096       0.003
   0.03080166  0.03080166  0.08214096       0.003
   0.06160333  0.00000000  0.08214096       0.003
   0.09240499 -0.03080166  0.08214096       0.003
   0.12320665 -0.06160333  0.08214096       0.003
   0.15400831 -0.09240499  0.08214096       0.003
  -0.06160333  0.12320665  0.08214096       0.003
  -0.03080166  0.09240499  0.08214096       0.003
   0.00000000  0.06160333  0.08214096       0.003
   0.06160333  0.06160333  0.08214096       0.003
   0.09240499  0.03080166  0.08214096       0.003
   0.12320665  0.00000000  0.08214096       0.003
   0.15400831 -0.03080166  0.08214096       0.003
   0.18480998 -0.06160333  0.08214096       0.003
  -0.03080166  0.15400831  0.08214096       0.003
   0.00000000  0.12320665  0.08214096       0.003
   0.03080166  0.09240499  0.08214096       0.003
   0.09240499  0.09240499  0.08214096       0.003
   0.12320665  0.06160333  0.08214096       0.003
   0.15400831  0.03080166  0.08214096       0.003
   0.18480998 -0.00000000  0.08214096       0.003
   0.21561164 -0.03080166  0.08214096       0.003
  -0.00000000  0.18480998  0.08214096       0.003
   0.03080166  0.15400831  0.08214096       0.003
   0.06160333  0.12320665  0.08214096       0.003
   0.12320665  0.12320665  0.08214096       0.003
   0.15400831  0.09240499  0.08214096       0.003
   0.18480998  0.06160333  0.08214096       0.003
   0.21561164  0.03080166  0.08214096       0.003
   0.24641330  0.00000000  0.08214096       0.003
   0.03080166  0.21561164  0.08214096       0.003
   0.06160333  0.18480998  0.08214096       0.003
   0.09240499  0.15400831  0.08214096       0.003
  -0.09240499 -0.09240499  0.08214096       0.003
  -0.06160333 -0.12320665  0.08214096       0.003
  -0.03080166 -0.15400831  0.08214096       0.003
   0.00000000 -0.18480998  0.08214096       0.003
   0.03080166 -0.21561164  0.08214096       0.003
  -0.18480998  0.00000000  0.08214096       0.003
  -0.15400831 -0.03080166  0.08214096       0.003
  -0.12320665 -0.06160333  0.08214096       0.003
  -0.06160333 -0.06160333  0.08214096       0.003
  -0.03080166 -0.09240499  0.08214096       0.003
  -0.00000000 -0.12320665  0.08214096       0.003
   0.03080166 -0.15400831  0.08214096       0.003
   0.06160333 -0.18480998  0.08214096       0.003
  -0.15400831  0.03080166  0.08214096       0.003
  -0.12320665 -0.00000000  0.08214096       0.003
  -0.09240499 -0.03080166  0.08214096       0.003
  -0.03080166 -0.03080166  0.08214096       0.003
  -0.00000000 -0.06160333  0.08214096       0.003
   0.03080166 -0.09240499  0.08214096       0.003
   0.06160333 -0.12320665  0.08214096       0.003
   0.09240499 -0.15400831  0.08214096       0.003
  -0.12320665  0.06160333  0.08214096       0.003
  -0.09240499  0.03080166  0.08214096       0.003
  -0.06160333 -0.00000000  0.08214096       0.003
   0.00000000  0.00000000  0.12321143       0.003
   0.03080166 -0.03080166  0.12321143       0.003
   0.06160333 -0.06160333  0.12321143       0.003
   0.09240499 -0.09240499  0.12321143       0.003
   0.12320665 -0.12320665  0.12321143       0.003
  -0.09240499  0.09240499  0.12321143       0.003
  -0.06160333  0.06160333  0.12321143       0.003
  -0.03080166  0.03080166  0.12321143       0.003
   0.03080166  0.03080166  0.12321143       0.003
   0.06160333  0.00000000  0.12321143       0.003
   0.09240499 -0.03080166  0.12321143       0.003
   0.12320665 -0.06160333  0.12321143       0.003
   0.15400831 -0.09240499  0.12321143       0.003
  -0.06160333  0.12320665  0.12321143       0.003
  -0.03080166  0.09240499  0.12321143       0.003
   0.00000000  0.06160333  0.12321143       0.003
   0.06160333  0.06160333  0.12321143       0.003
   0.09240499  0.03080166  0.12321143       0.003
   0.12320665  0.00000000  0.12321143       0.003
   0.15400831 -0.03080166  0.12321143       0.003
   0.18480998 -0.06160333  0.12321143       0.003
  -0.03080166  0.15400831  0.12321143       0.003
   0.00000000  0.12320665  0.12321143       0.003
   0.03080166  0.09240499  0.12321143       0.003
   0.09240499  0.09240499  0.12321143       0.003
   0.12320665  0.06160333  0.12321143       0.003
   0.15400831  0.03080166  0.12321143       0.003
   0.18480998 -0.00000000  0.12321143       0.003
   0.21561164 -0.03080166  0.12321143       0.003
  -0.00000000  0.18480998  0.12321143       0.003
   0.03080166  0.15400831  0.12321143       0.003
   0.06160333  0.12320665  0.12321143       0.003
   0.12320665  0.12320665  0.12321143       0.003
   0.15400831  0.09240499  0.12321143       0.003
   0.18480998  0.06160333  0.12321143       0.003
   0.21561164  0.03080166  0.12321143       0.003
   0.24641330  0.00000000  0.12321143       0.003
   0.03080166  0.21561164  0.12321143       0.003
   0.06160333  0.18480998  0.12321143       0.003
   0.09240499  0.15400831  0.12321143       0.003
  -0.09240499 -0.09240499  0.12321143       0.003
  -0.06160333 -0.12320665  0.12321143       0.003
  -0.03080166 -0.15400831  0.12321143       0.003
   0.00000000 -0.18480998  0.12321143       0.003
   0.03080166 -0.21561164  0.12321143       0.003
  -0.18480998  0.00000000  0.12321143       0.003
  -0.15400831 -0.03080166  0.12321143       0.003
  -0.12320665 -0.06160333  0.12321143       0.003
  -0.06160333 -0.06160333  0.12321143       0.003
  -0.03080166 -0.09240499  0.12321143       0.003
  -0.00000000 -0.12320665  0.12321143       0.003
   0.03080166 -0.15400831  0.12321143       0.003
   0.06160333 -0.18480998  0.12321143       0.003
  -0.15400831  0.03080166  0.12321143       0.003
  -0.12320665 -0.00000000  0.12321143       0.003
  -0.09240499 -0.03080166  0.12321143       0.003
  -0.03080166 -0.03080166  0.12321143       0.003
  -0.00000000 -0.06160333  0.12321143       0.003
   0.03080166 -0.09240499  0.12321143       0.003
   0.06160333 -0.12320665  0.12321143       0.003
   0.09240499 -0.15400831  0.12321143       0.003
  -0.12320665  0.06160333  0.12321143       0.003
  -0.09240499  0.03080166  0.12321143       0.003
  -0.06160333 -0.00000000  0.12321143       0.003
   0.00000000  0.00000000 -0.08214096       0.003
   0.03080166 -0.03080166 -0.08214096       0.003
   0.06160333 -0.06160333 -0.08214096       0.003
   0.09240499 -0.09240499 -0.08214096       0.003
   0.12320665 -0.12320665 -0.08214096       0.003
  -0.09240499  0.09240499 -0.08214096       0.003
  -0.06160333  0.06160333 -0.08214096       0.003
  -0.03080166  0.03080166 -0.08214096       0.003
   0.03080166  0.03080166 -0.08214096       0.003
   0.06160333  0.00000000 -0.08214096       0.003
   0.09240499 -0.03080166 -0.08214096       0.003
   0.12320665 -0.06160333 -0.08214096       0.003
   0.15400831 -0.09240499 -0.08214096       0.003
  -0.06160333  0.12320665 -0.08214096       0.003
  -0.03080166  0.09240499 -0.08214096       0.003
   0.00000000  0.06160333 -0.08214096       0.003
   0.06160333  0.06160333 -0.08214096       0.003
   0.09240499  0.03080166 -0.08214096       0.003
   0.12320665  0.00000000 -0.08214096       0.003
   0.15400831 -0.03080166 -0.08214096       0.003
   0.18480998 -0.06160333 -0.08214096       0.003
  -0.03080166  0.15400831 -0.08214096       0.003
   0.00000000  0.12320665 -0.08214096       0.003
   0.03080166  0.09240499 -0.08214096       0.003
   0.09240499  0.09240499 -0.08214096       0.003
   0.12320665  0.06160333 -0.08214096       0.003
   0.15400831  0.03080166 -0.08214096       0.003
   0.18480998 -0.00000000 -0.08214096       0.003
   0.21561164 -0.03080166 -0.08214096       0.003
  -0.00000000  0.18480998 -0.08214096       0.003
   0.03080166  0.15400831 -0.08214096       0.003
   0.06160333  0.12320665 -0.08214096       0.003
   0.12320665  0.12320665 -0.08214096       0.003
   0.15400831  0.09240499 -0.08214096       0.003
   0.18480998  0.06160333 -0.08214096       0.003
   0.21561164  0.03080166 -0.08214096       0.003
   0.24641330  0.00000000 -0.08214096       0.003
   0.03080166  0.21561164 -0.08214096       0.003
   0.06160333  0.18480998 -0.08214096       0.003
   0.09240499  0.15400831 -0.08214096       0.003
  -0.09240499 -0.09240499 -0.08214096       0.003
  -0.06160333 -0.12320665 -0.08214096       0.003
  -0.03080166 -0.15400831 -0.08214096       0.003
   0.00000000 -0.18480998 -0.08214096       0.003
   0.03080166 -0.21561164 -0.08214096       0.003
  -0.18480998  0.00000000 -0.08214096       0.003
  -0.15400831 -0.03080166 -0.08214096       0.003
  -0.12320665 -0.06160333 -0.08214096       0.003
  -0.06160333 -0.06160333 -0.08214096       0.003
  -0.03080166 -0.09240499 -0.08214096       0.003
  -0.00000000 -0.12320665 -0.08214096       0.003
   0.03080166 -0.15400831 -0.08214096       0.003
   0.06160333 -0.18480998 -0.08214096       0.003
  -0.15400831  0.03080166 -0.08214096       0.003
  -0.12320665 -0.00000000 -0.08214096       0.003
  -0.09240499 -0.03080166 -0.08214096       0.003
  -0.03080166 -0.03080166 -0.08214096       0.003
  -0.00000000 -0.06160333 -0.08214096       0.003
   0.03080166 -0.09240499 -0.08214096       0.003
   0.06160333 -0.12320665 -0.08214096       0.003
   0.09240499 -0.15400831 -0.08214096       0.003
  -0.12320665  0.06160333 -0.08214096       0.003
  -0.09240499  0.03080166 -0.08214096       0.003
  -0.06160333 -0.00000000 -0.08214096       0.003
   0.00000000  0.00000000 -0.04107048       0.003
   0.03080166 -0.03080166 -0.04107048       0.003
   0.06160333 -0.06160333 -0.04107048       0.003
   0.09240499 -0.09240499 -0.04107048       0.003
   0.12320665 -0.12320665 -0.04107048       0.003
  -0.09240499  0.09240499 -0.04107048       0.003
  -0.06160333  0.06160333 -0.04107048       0.003
  -0.03080166  0.03080166 -0.04107048       0.003
   0.03080166  0.03080166 -0.04107048       0.003
   0.06160333  0.00000000 -0.04107048       0.003
   0.09240499 -0.03080166 -0.04107048       0.003
   0.12320665 -0.06160333 -0.04107048       0.003
   0.15400831 -0.09240499 -0.04107048       0.003
  -0.06160333  0.12320665 -0.04107048       0.003
  -0.03080166  0.09240499 -0.04107048       0.003
   0.00000000  0.06160333 -0.04107048       0.003
   0.06160333  0.06160333 -0.04107048       0.003
   0.09240499  0.03080166 -0.04107048       0.003
   0.12320665  0.00000000 -0.04107048       0.003
   0.15400831 -0.03080166 -0.04107048       0.003
   0.18480998 -0.06160333 -0.04107048       0.003
  -0.03080166  0.15400831 -0.04107048       0.003
   0.00000000  0.12320665 -0.04107048       0.003
   0.03080166  0.09240499 -0.04107048       0.003
   0.09240499  0.09240499 -0.04107048       0.003
   0.12320665  0.06160333 -0.04107048       0.003
   0.15400831  0.03080166 -0.04107048       0.003
   0.18480998 -0.00000000 -0.04107048       0.003
   0.21561164 -0.03080166 -0.04107048       0.003
  -0.00000000  0.18480998 -0.04107048       0.003
   0.03080166  0.15400831 -0.04107048       0.003
   0.06160333  0.12320665 -0.04107048       0.003
   0.12320665  0.12320665 -0.04107048       0.003
   0.15400831  0.09240499 -0.04107048       0.003
   0.18480998  0.06160333 -0.04107048       0.003
   0.21561164  0.03080166 -0.04107048       0.003
   0.24641330  0.00000000 -0.04107048       0.003
   0.03080166  0.21561164 -0.04107048       0.003
   0.06160333  0.18480998 -0.04107048       0.003
   0.09240499  0.15400831 -0.04107048       0.003
  -0.09240499 -0.09240499 -0.04107048       0.003
  -0.06160333 -0.12320665 -0.04107048       0.003
  -0.03080166 -0.15400831 -0.04107048       0.003
   0.00000000 -0.18480998 -0.04107048       0.003
   0.03080166 -0.21561164 -0.04107048       0.003
  -0.18480998  0.00000000 -0.04107048       0.003
  -0.15400831 -0.03080166 -0.04107048       0.003
  -0.12320665 -0.06160333 -0.04107048       0.003
  -0.06160333 -0.06160333 -0.04107048       0.003
  -0.03080166 -0.09240499 -0.04107048       0.003
  -0.00000000 -0.12320665 -0.04107048       0.003
   0.03080166 -0.15400831 -0.04107048       0.003
   0.06160333 -0.18480998 -0.04107048       0.003
  -0.15400831  0.03080166 -0.04107048       0.003
  -0.12320665 -0.00000000 -0.04107048       0.003
  -0.09240499 -0.03080166 -0.04107048       0.003
  -0.03080166 -0.03080166 -0.04107048       0.003
  -0.00000000 -0.06160333 -0.04107048       0.003
   0.03080166 -0.09240499 -0.04107048       0.003
   0.06160333 -0.12320665 -0.04107048       0.003
   0.09240499 -0.15400831 -0.04107048       0.003
  -0.12320665  0.06160333 -0.04107048       0.003
  -0.09240499  0.03080166 -0.04107048       0.003
  -0.06160333 -0.00000000 -0.04107048       0.003
 
 k-points in reciprocal lattice and weights: KPOINTS created by Atomic Simulation Env
   0.00000000  0.00000000  0.00000000       0.003
   0.12500000 -0.00000000  0.00000000       0.003
   0.25000000 -0.00000000  0.00000000       0.003
   0.37500000 -0.00000000  0.00000000       0.003
   0.50000000 -0.00000000  0.00000000       0.003
  -0.37500000  0.00000000  0.00000000       0.003
  -0.25000000  0.00000000  0.00000000       0.003
  -0.12500000  0.00000000  0.00000000       0.003
  -0.00000000  0.12500000  0.00000000       0.003
   0.12500000  0.12500000  0.00000000       0.003
   0.25000000  0.12500000  0.00000000       0.003
   0.37500000  0.12500000  0.00000000       0.003
   0.50000000  0.12500000  0.00000000       0.003
  -0.37500000  0.12500000  0.00000000       0.003
  -0.25000000  0.12500000  0.00000000       0.003
  -0.12500000  0.12500000  0.00000000       0.003
  -0.00000000  0.25000000  0.00000000       0.003
   0.12500000  0.25000000  0.00000000       0.003
   0.25000000  0.25000000  0.00000000       0.003
   0.37500000  0.25000000  0.00000000       0.003
   0.50000000  0.25000000  0.00000000       0.003
  -0.37500000  0.25000000  0.00000000       0.003
  -0.25000000  0.25000000  0.00000000       0.003
  -0.12500000  0.25000000  0.00000000       0.003
  -0.00000000  0.37500000  0.00000000       0.003
   0.12500000  0.37500000  0.00000000       0.003
   0.25000000  0.37500000  0.00000000       0.003
   0.37500000  0.37500000  0.00000000       0.003
   0.50000000  0.37500000  0.00000000       0.003
  -0.37500000  0.37500000  0.00000000       0.003
  -0.25000000  0.37500000  0.00000000       0.003
  -0.12500000  0.37500000  0.00000000       0.003
  -0.00000000  0.50000000  0.00000000       0.003
   0.12500000  0.50000000  0.00000000       0.003
   0.25000000  0.50000000  0.00000000       0.003
   0.37500000  0.50000000  0.00000000       0.003
   0.50000000  0.50000000  0.00000000       0.003
  -0.37500000  0.50000000  0.00000000       0.003
  -0.25000000  0.50000000  0.00000000       0.003
  -0.12500000  0.50000000  0.00000000       0.003
   0.00000000 -0.37500000  0.00000000       0.003
   0.12500000 -0.37500000  0.00000000       0.003
   0.25000000 -0.37500000  0.00000000       0.003
   0.37500000 -0.37500000  0.00000000       0.003
   0.50000000 -0.37500000  0.00000000       0.003
  -0.37500000 -0.37500000  0.00000000       0.003
  -0.25000000 -0.37500000  0.00000000       0.003
  -0.12500000 -0.37500000  0.00000000       0.003
   0.00000000 -0.25000000  0.00000000       0.003
   0.12500000 -0.25000000  0.00000000       0.003
   0.25000000 -0.25000000  0.00000000       0.003
   0.37500000 -0.25000000  0.00000000       0.003
   0.50000000 -0.25000000  0.00000000       0.003
  -0.37500000 -0.25000000  0.00000000       0.003
  -0.25000000 -0.25000000  0.00000000       0.003
  -0.12500000 -0.25000000  0.00000000       0.003
   0.00000000 -0.12500000  0.00000000       0.003
   0.12500000 -0.12500000  0.00000000       0.003
   0.25000000 -0.12500000  0.00000000       0.003
   0.37500000 -0.12500000  0.00000000       0.003
   0.50000000 -0.12500000  0.00000000       0.003
  -0.37500000 -0.12500000  0.00000000       0.003
  -0.25000000 -0.12500000  0.00000000       0.003
  -0.12500000 -0.12500000  0.00000000       0.003
   0.00000000  0.00000000  0.16666667       0.003
   0.12500000 -0.00000000  0.16666667       0.003
   0.25000000 -0.00000000  0.16666667       0.003
   0.37500000 -0.00000000  0.16666667       0.003
   0.50000000 -0.00000000  0.16666667       0.003
  -0.37500000  0.00000000  0.16666667       0.003
  -0.25000000  0.00000000  0.16666667       0.003
  -0.12500000  0.00000000  0.16666667       0.003
  -0.00000000  0.12500000  0.16666667       0.003
   0.12500000  0.12500000  0.16666667       0.003
   0.25000000  0.12500000  0.16666667       0.003
   0.37500000  0.12500000  0.16666667       0.003
   0.50000000  0.12500000  0.16666667       0.003
  -0.37500000  0.12500000  0.16666667       0.003
  -0.25000000  0.12500000  0.16666667       0.003
  -0.12500000  0.12500000  0.16666667       0.003
  -0.00000000  0.25000000  0.16666667       0.003
   0.12500000  0.25000000  0.16666667       0.003
   0.25000000  0.25000000  0.16666667       0.003
   0.37500000  0.25000000  0.16666667       0.003
   0.50000000  0.25000000  0.16666667       0.003
  -0.37500000  0.25000000  0.16666667       0.003
  -0.25000000  0.25000000  0.16666667       0.003
  -0.12500000  0.25000000  0.16666667       0.003
  -0.00000000  0.37500000  0.16666667       0.003
   0.12500000  0.37500000  0.16666667       0.003
   0.25000000  0.37500000  0.16666667       0.003
   0.37500000  0.37500000  0.16666667       0.003
   0.50000000  0.37500000  0.16666667       0.003
  -0.37500000  0.37500000  0.16666667       0.003
  -0.25000000  0.37500000  0.16666667       0.003
  -0.12500000  0.37500000  0.16666667       0.003
  -0.00000000  0.50000000  0.16666667       0.003
   0.12500000  0.50000000  0.16666667       0.003
   0.25000000  0.50000000  0.16666667       0.003
   0.37500000  0.50000000  0.16666667       0.003
   0.50000000  0.50000000  0.16666667       0.003
  -0.37500000  0.50000000  0.16666667       0.003
  -0.25000000  0.50000000  0.16666667       0.003
  -0.12500000  0.50000000  0.16666667       0.003
   0.00000000 -0.37500000  0.16666667       0.003
   0.12500000 -0.37500000  0.16666667       0.003
   0.25000000 -0.37500000  0.16666667       0.003
   0.37500000 -0.37500000  0.16666667       0.003
   0.50000000 -0.37500000  0.16666667       0.003
  -0.37500000 -0.37500000  0.16666667       0.003
  -0.25000000 -0.37500000  0.16666667       0.003
  -0.12500000 -0.37500000  0.16666667       0.003
   0.00000000 -0.25000000  0.16666667       0.003
   0.12500000 -0.25000000  0.16666667       0.003
   0.25000000 -0.25000000  0.16666667       0.003
   0.37500000 -0.25000000  0.16666667       0.003
   0.50000000 -0.25000000  0.16666667       0.003
  -0.37500000 -0.25000000  0.16666667       0.003
  -0.25000000 -0.25000000  0.16666667       0.003
  -0.12500000 -0.25000000  0.16666667       0.003
   0.00000000 -0.12500000  0.16666667       0.003
   0.12500000 -0.12500000  0.16666667       0.003
   0.25000000 -0.12500000  0.16666667       0.003
   0.37500000 -0.12500000  0.16666667       0.003
   0.50000000 -0.12500000  0.16666667       0.003
  -0.37500000 -0.12500000  0.16666667       0.003
  -0.25000000 -0.12500000  0.16666667       0.003
  -0.12500000 -0.12500000  0.16666667       0.003
   0.00000000  0.00000000  0.33333333       0.003
   0.12500000 -0.00000000  0.33333333       0.003
   0.25000000 -0.00000000  0.33333333       0.003
   0.37500000 -0.00000000  0.33333333       0.003
   0.50000000 -0.00000000  0.33333333       0.003
  -0.37500000  0.00000000  0.33333333       0.003
  -0.25000000  0.00000000  0.33333333       0.003
  -0.12500000  0.00000000  0.33333333       0.003
  -0.00000000  0.12500000  0.33333333       0.003
   0.12500000  0.12500000  0.33333333       0.003
   0.25000000  0.12500000  0.33333333       0.003
   0.37500000  0.12500000  0.33333333       0.003
   0.50000000  0.12500000  0.33333333       0.003
  -0.37500000  0.12500000  0.33333333       0.003
  -0.25000000  0.12500000  0.33333333       0.003
  -0.12500000  0.12500000  0.33333333       0.003
  -0.00000000  0.25000000  0.33333333       0.003
   0.12500000  0.25000000  0.33333333       0.003
   0.25000000  0.25000000  0.33333333       0.003
   0.37500000  0.25000000  0.33333333       0.003
   0.50000000  0.25000000  0.33333333       0.003
  -0.37500000  0.25000000  0.33333333       0.003
  -0.25000000  0.25000000  0.33333333       0.003
  -0.12500000  0.25000000  0.33333333       0.003
  -0.00000000  0.37500000  0.33333333       0.003
   0.12500000  0.37500000  0.33333333       0.003
   0.25000000  0.37500000  0.33333333       0.003
   0.37500000  0.37500000  0.33333333       0.003
   0.50000000  0.37500000  0.33333333       0.003
  -0.37500000  0.37500000  0.33333333       0.003
  -0.25000000  0.37500000  0.33333333       0.003
  -0.12500000  0.37500000  0.33333333       0.003
  -0.00000000  0.50000000  0.33333333       0.003
   0.12500000  0.50000000  0.33333333       0.003
   0.25000000  0.50000000  0.33333333       0.003
   0.37500000  0.50000000  0.33333333       0.003
   0.50000000  0.50000000  0.33333333       0.003
  -0.37500000  0.50000000  0.33333333       0.003
  -0.25000000  0.50000000  0.33333333       0.003
  -0.12500000  0.50000000  0.33333333       0.003
   0.00000000 -0.37500000  0.33333333       0.003
   0.12500000 -0.37500000  0.33333333       0.003
   0.25000000 -0.37500000  0.33333333       0.003
   0.37500000 -0.37500000  0.33333333       0.003
   0.50000000 -0.37500000  0.33333333       0.003
  -0.37500000 -0.37500000  0.33333333       0.003
  -0.25000000 -0.37500000  0.33333333       0.003
  -0.12500000 -0.37500000  0.33333333       0.003
   0.00000000 -0.25000000  0.33333333       0.003
   0.12500000 -0.25000000  0.33333333       0.003
   0.25000000 -0.25000000  0.33333333       0.003
   0.37500000 -0.25000000  0.33333333       0.003
   0.50000000 -0.25000000  0.33333333       0.003
  -0.37500000 -0.25000000  0.33333333       0.003
  -0.25000000 -0.25000000  0.33333333       0.003
  -0.12500000 -0.25000000  0.33333333       0.003
   0.00000000 -0.12500000  0.33333333       0.003
   0.12500000 -0.12500000  0.33333333       0.003
   0.25000000 -0.12500000  0.33333333       0.003
   0.37500000 -0.12500000  0.33333333       0.003
   0.50000000 -0.12500000  0.33333333       0.003
  -0.37500000 -0.12500000  0.33333333       0.003
  -0.25000000 -0.12500000  0.33333333       0.003
  -0.12500000 -0.12500000  0.33333333       0.003
   0.00000000  0.00000000  0.50000000       0.003
   0.12500000 -0.00000000  0.50000000       0.003
   0.25000000 -0.00000000  0.50000000       0.003
   0.37500000 -0.00000000  0.50000000       0.003
   0.50000000 -0.00000000  0.50000000       0.003
  -0.37500000  0.00000000  0.50000000       0.003
  -0.25000000  0.00000000  0.50000000       0.003
  -0.12500000  0.00000000  0.50000000       0.003
  -0.00000000  0.12500000  0.50000000       0.003
   0.12500000  0.12500000  0.50000000       0.003
   0.25000000  0.12500000  0.50000000       0.003
   0.37500000  0.12500000  0.50000000       0.003
   0.50000000  0.12500000  0.50000000       0.003
  -0.37500000  0.12500000  0.50000000       0.003
  -0.25000000  0.12500000  0.50000000       0.003
  -0.12500000  0.12500000  0.50000000       0.003
  -0.00000000  0.25000000  0.50000000       0.003
   0.12500000  0.25000000  0.50000000       0.003
   0.25000000  0.25000000  0.50000000       0.003
   0.37500000  0.25000000  0.50000000       0.003
   0.50000000  0.25000000  0.50000000       0.003
  -0.37500000  0.25000000  0.50000000       0.003
  -0.25000000  0.25000000  0.50000000       0.003
  -0.12500000  0.25000000  0.50000000       0.003
  -0.00000000  0.37500000  0.50000000       0.003
   0.12500000  0.37500000  0.50000000       0.003
   0.25000000  0.37500000  0.50000000       0.003
   0.37500000  0.37500000  0.50000000       0.003
   0.50000000  0.37500000  0.50000000       0.003
  -0.37500000  0.37500000  0.50000000       0.003
  -0.25000000  0.37500000  0.50000000       0.003
  -0.12500000  0.37500000  0.50000000       0.003
  -0.00000000  0.50000000  0.50000000       0.003
   0.12500000  0.50000000  0.50000000       0.003
   0.25000000  0.50000000  0.50000000       0.003
   0.37500000  0.50000000  0.50000000       0.003
   0.50000000  0.50000000  0.50000000       0.003
  -0.37500000  0.50000000  0.50000000       0.003
  -0.25000000  0.50000000  0.50000000       0.003
  -0.12500000  0.50000000  0.50000000       0.003
   0.00000000 -0.37500000  0.50000000       0.003
   0.12500000 -0.37500000  0.50000000       0.003
   0.25000000 -0.37500000  0.50000000       0.003
   0.37500000 -0.37500000  0.50000000       0.003
   0.50000000 -0.37500000  0.50000000       0.003
  -0.37500000 -0.37500000  0.50000000       0.003
  -0.25000000 -0.37500000  0.50000000       0.003
  -0.12500000 -0.37500000  0.50000000       0.003
   0.00000000 -0.25000000  0.50000000       0.003
   0.12500000 -0.25000000  0.50000000       0.003
   0.25000000 -0.25000000  0.50000000       0.003
   0.37500000 -0.25000000  0.50000000       0.003
   0.50000000 -0.25000000  0.50000000       0.003
  -0.37500000 -0.25000000  0.50000000       0.003
  -0.25000000 -0.25000000  0.50000000       0.003
  -0.12500000 -0.25000000  0.50000000       0.003
   0.00000000 -0.12500000  0.50000000       0.003
   0.12500000 -0.12500000  0.50000000       0.003
   0.25000000 -0.12500000  0.50000000       0.003
   0.37500000 -0.12500000  0.50000000       0.003
   0.50000000 -0.12500000  0.50000000       0.003
  -0.37500000 -0.12500000  0.50000000       0.003
  -0.25000000 -0.12500000  0.50000000       0.003
  -0.12500000 -0.12500000  0.50000000       0.003
   0.00000000  0.00000000 -0.33333333       0.003
   0.12500000 -0.00000000 -0.33333333       0.003
   0.25000000 -0.00000000 -0.33333333       0.003
   0.37500000 -0.00000000 -0.33333333       0.003
   0.50000000 -0.00000000 -0.33333333       0.003
  -0.37500000  0.00000000 -0.33333333       0.003
  -0.25000000  0.00000000 -0.33333333       0.003
  -0.12500000  0.00000000 -0.33333333       0.003
  -0.00000000  0.12500000 -0.33333333       0.003
   0.12500000  0.12500000 -0.33333333       0.003
   0.25000000  0.12500000 -0.33333333       0.003
   0.37500000  0.12500000 -0.33333333       0.003
   0.50000000  0.12500000 -0.33333333       0.003
  -0.37500000  0.12500000 -0.33333333       0.003
  -0.25000000  0.12500000 -0.33333333       0.003
  -0.12500000  0.12500000 -0.33333333       0.003
  -0.00000000  0.25000000 -0.33333333       0.003
   0.12500000  0.25000000 -0.33333333       0.003
   0.25000000  0.25000000 -0.33333333       0.003
   0.37500000  0.25000000 -0.33333333       0.003
   0.50000000  0.25000000 -0.33333333       0.003
  -0.37500000  0.25000000 -0.33333333       0.003
  -0.25000000  0.25000000 -0.33333333       0.003
  -0.12500000  0.25000000 -0.33333333       0.003
  -0.00000000  0.37500000 -0.33333333       0.003
   0.12500000  0.37500000 -0.33333333       0.003
   0.25000000  0.37500000 -0.33333333       0.003
   0.37500000  0.37500000 -0.33333333       0.003
   0.50000000  0.37500000 -0.33333333       0.003
  -0.37500000  0.37500000 -0.33333333       0.003
  -0.25000000  0.37500000 -0.33333333       0.003
  -0.12500000  0.37500000 -0.33333333       0.003
  -0.00000000  0.50000000 -0.33333333       0.003
   0.12500000  0.50000000 -0.33333333       0.003
   0.25000000  0.50000000 -0.33333333       0.003
   0.37500000  0.50000000 -0.33333333       0.003
   0.50000000  0.50000000 -0.33333333       0.003
  -0.37500000  0.50000000 -0.33333333       0.003
  -0.25000000  0.50000000 -0.33333333       0.003
  -0.12500000  0.50000000 -0.33333333       0.003
   0.00000000 -0.37500000 -0.33333333       0.003
   0.12500000 -0.37500000 -0.33333333       0.003
   0.25000000 -0.37500000 -0.33333333       0.003
   0.37500000 -0.37500000 -0.33333333       0.003
   0.50000000 -0.37500000 -0.33333333       0.003
  -0.37500000 -0.37500000 -0.33333333       0.003
  -0.25000000 -0.37500000 -0.33333333       0.003
  -0.12500000 -0.37500000 -0.33333333       0.003
   0.00000000 -0.25000000 -0.33333333       0.003
   0.12500000 -0.25000000 -0.33333333       0.003
   0.25000000 -0.25000000 -0.33333333       0.003
   0.37500000 -0.25000000 -0.33333333       0.003
   0.50000000 -0.25000000 -0.33333333       0.003
  -0.37500000 -0.25000000 -0.33333333       0.003
  -0.25000000 -0.25000000 -0.33333333       0.003
  -0.12500000 -0.25000000 -0.33333333       0.003
   0.00000000 -0.12500000 -0.33333333       0.003
   0.12500000 -0.12500000 -0.33333333       0.003
   0.25000000 -0.12500000 -0.33333333       0.003
   0.37500000 -0.12500000 -0.33333333       0.003
   0.50000000 -0.12500000 -0.33333333       0.003
  -0.37500000 -0.12500000 -0.33333333       0.003
  -0.25000000 -0.12500000 -0.33333333       0.003
  -0.12500000 -0.12500000 -0.33333333       0.003
   0.00000000  0.00000000 -0.16666667       0.003
   0.12500000 -0.00000000 -0.16666667       0.003
   0.25000000 -0.00000000 -0.16666667       0.003
   0.37500000 -0.00000000 -0.16666667       0.003
   0.50000000 -0.00000000 -0.16666667       0.003
  -0.37500000  0.00000000 -0.16666667       0.003
  -0.25000000  0.00000000 -0.16666667       0.003
  -0.12500000  0.00000000 -0.16666667       0.003
  -0.00000000  0.12500000 -0.16666667       0.003
   0.12500000  0.12500000 -0.16666667       0.003
   0.25000000  0.12500000 -0.16666667       0.003
   0.37500000  0.12500000 -0.16666667       0.003
   0.50000000  0.12500000 -0.16666667       0.003
  -0.37500000  0.12500000 -0.16666667       0.003
  -0.25000000  0.12500000 -0.16666667       0.003
  -0.12500000  0.12500000 -0.16666667       0.003
  -0.00000000  0.25000000 -0.16666667       0.003
   0.12500000  0.25000000 -0.16666667       0.003
   0.25000000  0.25000000 -0.16666667       0.003
   0.37500000  0.25000000 -0.16666667       0.003
   0.50000000  0.25000000 -0.16666667       0.003
  -0.37500000  0.25000000 -0.16666667       0.003
  -0.25000000  0.25000000 -0.16666667       0.003
  -0.12500000  0.25000000 -0.16666667       0.003
  -0.00000000  0.37500000 -0.16666667       0.003
   0.12500000  0.37500000 -0.16666667       0.003
   0.25000000  0.37500000 -0.16666667       0.003
   0.37500000  0.37500000 -0.16666667       0.003
   0.50000000  0.37500000 -0.16666667       0.003
  -0.37500000  0.37500000 -0.16666667       0.003
  -0.25000000  0.37500000 -0.16666667       0.003
  -0.12500000  0.37500000 -0.16666667       0.003
  -0.00000000  0.50000000 -0.16666667       0.003
   0.12500000  0.50000000 -0.16666667       0.003
   0.25000000  0.50000000 -0.16666667       0.003
   0.37500000  0.50000000 -0.16666667       0.003
   0.50000000  0.50000000 -0.16666667       0.003
  -0.37500000  0.50000000 -0.16666667       0.003
  -0.25000000  0.50000000 -0.16666667       0.003
  -0.12500000  0.50000000 -0.16666667       0.003
   0.00000000 -0.37500000 -0.16666667       0.003
   0.12500000 -0.37500000 -0.16666667       0.003
   0.25000000 -0.37500000 -0.16666667       0.003
   0.37500000 -0.37500000 -0.16666667       0.003
   0.50000000 -0.37500000 -0.16666667       0.003
  -0.37500000 -0.37500000 -0.16666667       0.003
  -0.25000000 -0.37500000 -0.16666667       0.003
  -0.12500000 -0.37500000 -0.16666667       0.003
   0.00000000 -0.25000000 -0.16666667       0.003
   0.12500000 -0.25000000 -0.16666667       0.003
   0.25000000 -0.25000000 -0.16666667       0.003
   0.37500000 -0.25000000 -0.16666667       0.003
   0.50000000 -0.25000000 -0.16666667       0.003
  -0.37500000 -0.25000000 -0.16666667       0.003
  -0.25000000 -0.25000000 -0.16666667       0.003
  -0.12500000 -0.25000000 -0.16666667       0.003
   0.00000000 -0.12500000 -0.16666667       0.003
   0.12500000 -0.12500000 -0.16666667       0.003
   0.25000000 -0.12500000 -0.16666667       0.003
   0.37500000 -0.12500000 -0.16666667       0.003
   0.50000000 -0.12500000 -0.16666667       0.003
  -0.37500000 -0.12500000 -0.16666667       0.003
  -0.25000000 -0.12500000 -0.16666667       0.003
  -0.12500000 -0.12500000 -0.16666667       0.003
 
 position of ions in fractional coordinates (direct lattice) 
   0.66666667  0.33333333  0.49935238
   0.16666667  0.83333333  0.99935238
   0.66666667  0.33333333  0.99935238
   0.16666667  0.83333333  0.49935238
 
 position of ions in cartesian coordinates  (Angst):
   2.02911123 -0.67637041  2.02640437
   2.02911123  1.35274082  4.05543683
   2.02911123 -0.67637041  4.05543683
   2.02911123  1.35274082  2.02640437
 


--------------------------------------------------------------------------------------------------------


 k-point   1 :   0.0000 0.0000 0.0000  plane waves:    1093
 k-point   2 :   0.1250-0.0000 0.0000  plane waves:    1099
 k-point   3 :   0.2500-0.0000 0.0000  plane waves:    1107
 k-point   4 :   0.3750-0.0000 0.0000  plane waves:    1112
 k-point   5 :   0.5000-0.0000 0.0000  plane waves:    1108
 k-point   6 :  -0.3750 0.0000 0.0000  plane waves:    1112
 k-point   7 :  -0.2500 0.0000 0.0000  plane waves:    1107
 k-point   8 :  -0.1250 0.0000 0.0000  plane waves:    1099
 k-point   9 :  -0.0000 0.1250 0.0000  plane waves:    1099
 k-point  10 :   0.1250 0.1250 0.0000  plane waves:    1120
 k-point  11 :   0.2500 0.1250 0.0000  plane waves:    1118
 k-point  12 :   0.3750 0.1250 0.0000  plane waves:    1105
 k-point  13 :   0.5000 0.1250 0.0000  plane waves:    1108
 k-point  14 :  -0.3750 0.1250 0.0000  plane waves:    1105
 k-point  15 :  -0.2500 0.1250 0.0000  plane waves:    1118
 k-point  16 :  -0.1250 0.1250 0.0000  plane waves:    1120
 k-point  17 :  -0.0000 0.2500 0.0000  plane waves:    1107
 k-point  18 :   0.1250 0.2500 0.0000  plane waves:    1118
 k-point  19 :   0.2500 0.2500 0.0000  plane waves:    1120
 k-point  20 :   0.3750 0.2500 0.0000  plane waves:    1118
 k-point  21 :   0.5000 0.2500 0.0000  plane waves:    1134
 k-point  22 :  -0.3750 0.2500 0.0000  plane waves:    1118
 k-point  23 :  -0.2500 0.2500 0.0000  plane waves:    1120
 k-point  24 :  -0.1250 0.2500 0.0000  plane waves:    1118
 k-point  25 :  -0.0000 0.3750 0.0000  plane waves:    1112
 k-point  26 :   0.1250 0.3750 0.0000  plane waves:    1105
 k-point  27 :   0.2500 0.3750 0.0000  plane waves:    1118
 k-point  28 :   0.3750 0.3750 0.0000  plane waves:    1132
 k-point  29 :   0.5000 0.3750 0.0000  plane waves:    1116
 k-point  30 :  -0.3750 0.3750 0.0000  plane waves:    1132
 k-point  31 :  -0.2500 0.3750 0.0000  plane waves:    1118
 k-point  32 :  -0.1250 0.3750 0.0000  plane waves:    1105
 k-point  33 :  -0.0000 0.5000 0.0000  plane waves:    1108
 k-point  34 :   0.1250 0.5000 0.0000  plane waves:    1108
 k-point  35 :   0.2500 0.5000 0.0000  plane waves:    1134
 k-point  36 :   0.3750 0.5000 0.0000  plane waves:    1116
 k-point  37 :   0.5000 0.5000 0.0000  plane waves:    1112
 k-point  38 :  -0.3750 0.5000 0.0000  plane waves:    1116
 k-point  39 :  -0.2500 0.5000 0.0000  plane waves:    1134
 k-point  40 :  -0.1250 0.5000 0.0000  plane waves:    1108
 k-point  41 :   0.0000-0.3750 0.0000  plane waves:    1112
 k-point  42 :   0.1250-0.3750 0.0000  plane waves:    1105
 k-point  43 :   0.2500-0.3750 0.0000  plane waves:    1118
 k-point  44 :   0.3750-0.3750 0.0000  plane waves:    1132
 k-point  45 :   0.5000-0.3750 0.0000  plane waves:    1116
 k-point  46 :  -0.3750-0.3750 0.0000  plane waves:    1132
 k-point  47 :  -0.2500-0.3750 0.0000  plane waves:    1118
 k-point  48 :  -0.1250-0.3750 0.0000  plane waves:    1105
 k-point  49 :   0.0000-0.2500 0.0000  plane waves:    1107
 k-point  50 :   0.1250-0.2500 0.0000  plane waves:    1118
 k-point  51 :   0.2500-0.2500 0.0000  plane waves:    1120
 k-point  52 :   0.3750-0.2500 0.0000  plane waves:    1118
 k-point  53 :   0.5000-0.2500 0.0000  plane waves:    1134
 k-point  54 :  -0.3750-0.2500 0.0000  plane waves:    1118
 k-point  55 :  -0.2500-0.2500 0.0000  plane waves:    1120
 k-point  56 :  -0.1250-0.2500 0.0000  plane waves:    1118
 k-point  57 :   0.0000-0.1250 0.0000  plane waves:    1099
 k-point  58 :   0.1250-0.1250 0.0000  plane waves:    1120
 k-point  59 :   0.2500-0.1250 0.0000  plane waves:    1118
 k-point  60 :   0.3750-0.1250 0.0000  plane waves:    1105
 k-point  61 :   0.5000-0.1250 0.0000  plane waves:    1108
 k-point  62 :  -0.3750-0.1250 0.0000  plane waves:    1105
 k-point  63 :  -0.2500-0.1250 0.0000  plane waves:    1118
 k-point  64 :  -0.1250-0.1250 0.0000  plane waves:    1120
 k-point  65 :   0.0000 0.0000 0.1667  plane waves:    1104
 k-point  66 :   0.1250-0.0000 0.1667  plane waves:    1110
 k-point  67 :   0.2500-0.0000 0.1667  plane waves:    1114
 k-point  68 :   0.3750-0.0000 0.1667  plane waves:    1117
 k-point  69 :   0.5000-0.0000 0.1667  plane waves:    1108
 k-point  70 :  -0.3750 0.0000 0.1667  plane waves:    1117
 k-point  71 :  -0.2500 0.0000 0.1667  plane waves:    1114
 k-point  72 :  -0.1250 0.0000 0.1667  plane waves:    1110
 k-point  73 :  -0.0000 0.1250 0.1667  plane waves:    1110
 k-point  74 :   0.1250 0.1250 0.1667  plane waves:    1118
 k-point  75 :   0.2500 0.1250 0.1667  plane waves:    1116
 k-point  76 :   0.3750 0.1250 0.1667  plane waves:    1113
 k-point  77 :   0.5000 0.1250 0.1667  plane waves:    1118
 k-point  78 :  -0.3750 0.1250 0.1667  plane waves:    1113
 k-point  79 :  -0.2500 0.1250 0.1667  plane waves:    1116
 k-point  80 :  -0.1250 0.1250 0.1667  plane waves:    1118
 k-point  81 :  -0.0000 0.2500 0.1667  plane waves:    1114
 k-point  82 :   0.1250 0.2500 0.1667  plane waves:    1116
 k-point  83 :   0.2500 0.2500 0.1667  plane waves:    1115
 k-point  84 :   0.3750 0.2500 0.1667  plane waves:    1110
 k-point  85 :   0.5000 0.2500 0.1667  plane waves:    1118
 k-point  86 :  -0.3750 0.2500 0.1667  plane waves:    1110
 k-point  87 :  -0.2500 0.2500 0.1667  plane waves:    1115
 k-point  88 :  -0.1250 0.2500 0.1667  plane waves:    1116
 k-point  89 :  -0.0000 0.3750 0.1667  plane waves:    1117
 k-point  90 :   0.1250 0.3750 0.1667  plane waves:    1113
 k-point  91 :   0.2500 0.3750 0.1667  plane waves:    1110
 k-point  92 :   0.3750 0.3750 0.1667  plane waves:    1114
 k-point  93 :   0.5000 0.3750 0.1667  plane waves:    1124
 k-point  94 :  -0.3750 0.3750 0.1667  plane waves:    1114
 k-point  95 :  -0.2500 0.3750 0.1667  plane waves:    1110
 k-point  96 :  -0.1250 0.3750 0.1667  plane waves:    1113
 k-point  97 :  -0.0000 0.5000 0.1667  plane waves:    1108
 k-point  98 :   0.1250 0.5000 0.1667  plane waves:    1118
 k-point  99 :   0.2500 0.5000 0.1667  plane waves:    1118
 k-point 100 :   0.3750 0.5000 0.1667  plane waves:    1124
 k-point 101 :   0.5000 0.5000 0.1667  plane waves:    1128
 k-point 102 :  -0.3750 0.5000 0.1667  plane waves:    1124
 k-point 103 :  -0.2500 0.5000 0.1667  plane waves:    1118
 k-point 104 :  -0.1250 0.5000 0.1667  plane waves:    1118
 k-point 105 :   0.0000-0.3750 0.1667  plane waves:    1117
 k-point 106 :   0.1250-0.3750 0.1667  plane waves:    1113
 k-point 107 :   0.2500-0.3750 0.1667  plane waves:    1110
 k-point 108 :   0.3750-0.3750 0.1667  plane waves:    1114
 k-point 109 :   0.5000-0.3750 0.1667  plane waves:    1124
 k-point 110 :  -0.3750-0.3750 0.1667  plane waves:    1114
 k-point 111 :  -0.2500-0.3750 0.1667  plane waves:    1110
 k-point 112 :  -0.1250-0.3750 0.1667  plane waves:    1113
 k-point 113 :   0.0000-0.2500 0.1667  plane waves:    1114
 k-point 114 :   0.1250-0.2500 0.1667  plane waves:    1116
 k-point 115 :   0.2500-0.2500 0.1667  plane waves:    1115
 k-point 116 :   0.3750-0.2500 0.1667  plane waves:    1110
 k-point 117 :   0.5000-0.2500 0.1667  plane waves:    1118
 k-point 118 :  -0.3750-0.2500 0.1667  plane waves:    1110
 k-point 119 :  -0.2500-0.2500 0.1667  plane waves:    1115
 k-point 120 :  -0.1250-0.2500 0.1667  plane waves:    1116
 k-point 121 :   0.0000-0.1250 0.1667  plane waves:    1110
 k-point 122 :   0.1250-0.1250 0.1667  plane waves:    1118
 k-point 123 :   0.2500-0.1250 0.1667  plane waves:    1116
 k-point 124 :   0.3750-0.1250 0.1667  plane waves:    1113
 k-point 125 :   0.5000-0.1250 0.1667  plane waves:    1118
 k-point 126 :  -0.3750-0.1250 0.1667  plane waves:    1113
 k-point 127 :  -0.2500-0.1250 0.1667  plane waves:    1116
 k-point 128 :  -0.1250-0.1250 0.1667  plane waves:    1118
 k-point 129 :   0.0000 0.0000 0.3333  plane waves:    1120
 k-point 130 :   0.1250-0.0000 0.3333  plane waves:    1114
 k-point 131 :   0.2500-0.0000 0.3333  plane waves:    1119
 k-point 132 :   0.3750-0.0000 0.3333  plane waves:    1119
 k-point 133 :   0.5000-0.0000 0.3333  plane waves:    1134
 k-point 134 :  -0.3750 0.0000 0.3333  plane waves:    1119
 k-point 135 :  -0.2500 0.0000 0.3333  plane waves:    1119
 k-point 136 :  -0.1250 0.0000 0.3333  plane waves:    1114
 k-point 137 :  -0.0000 0.1250 0.3333  plane waves:    1114
 k-point 138 :   0.1250 0.1250 0.3333  plane waves:    1119
 k-point 139 :   0.2500 0.1250 0.3333  plane waves:    1115
 k-point 140 :   0.3750 0.1250 0.3333  plane waves:    1117
 k-point 141 :   0.5000 0.1250 0.3333  plane waves:    1124
 k-point 142 :  -0.3750 0.1250 0.3333  plane waves:    1117
 k-point 143 :  -0.2500 0.1250 0.3333  plane waves:    1115
 k-point 144 :  -0.1250 0.1250 0.3333  plane waves:    1119
 k-point 145 :  -0.0000 0.2500 0.3333  plane waves:    1119
 k-point 146 :   0.1250 0.2500 0.3333  plane waves:    1115
 k-point 147 :   0.2500 0.2500 0.3333  plane waves:    1112
 k-point 148 :   0.3750 0.2500 0.3333  plane waves:    1114
 k-point 149 :   0.5000 0.2500 0.3333  plane waves:    1110
 k-point 150 :  -0.3750 0.2500 0.3333  plane waves:    1114
 k-point 151 :  -0.2500 0.2500 0.3333  plane waves:    1112
 k-point 152 :  -0.1250 0.2500 0.3333  plane waves:    1115
 k-point 153 :  -0.0000 0.3750 0.3333  plane waves:    1119
 k-point 154 :   0.1250 0.3750 0.3333  plane waves:    1117
 k-point 155 :   0.2500 0.3750 0.3333  plane waves:    1114
 k-point 156 :   0.3750 0.3750 0.3333  plane waves:    1115
 k-point 157 :   0.5000 0.3750 0.3333  plane waves:    1112
 k-point 158 :  -0.3750 0.3750 0.3333  plane waves:    1115
 k-point 159 :  -0.2500 0.3750 0.3333  plane waves:    1114
 k-point 160 :  -0.1250 0.3750 0.3333  plane waves:    1117
 k-point 161 :  -0.0000 0.5000 0.3333  plane waves:    1134
 k-point 162 :   0.1250 0.5000 0.3333  plane waves:    1124
 k-point 163 :   0.2500 0.5000 0.3333  plane waves:    1110
 k-point 164 :   0.3750 0.5000 0.3333  plane waves:    1112
 k-point 165 :   0.5000 0.5000 0.3333  plane waves:    1120
 k-point 166 :  -0.3750 0.5000 0.3333  plane waves:    1112
 k-point 167 :  -0.2500 0.5000 0.3333  plane waves:    1110
 k-point 168 :  -0.1250 0.5000 0.3333  plane waves:    1124
 k-point 169 :   0.0000-0.3750 0.3333  plane waves:    1119
 k-point 170 :   0.1250-0.3750 0.3333  plane waves:    1117
 k-point 171 :   0.2500-0.3750 0.3333  plane waves:    1114
 k-point 172 :   0.3750-0.3750 0.3333  plane waves:    1115
 k-point 173 :   0.5000-0.3750 0.3333  plane waves:    1112
 k-point 174 :  -0.3750-0.3750 0.3333  plane waves:    1115
 k-point 175 :  -0.2500-0.3750 0.3333  plane waves:    1114
 k-point 176 :  -0.1250-0.3750 0.3333  plane waves:    1117
 k-point 177 :   0.0000-0.2500 0.3333  plane waves:    1119
 k-point 178 :   0.1250-0.2500 0.3333  plane waves:    1115
 k-point 179 :   0.2500-0.2500 0.3333  plane waves:    1112
 k-point 180 :   0.3750-0.2500 0.3333  plane waves:    1114
 k-point 181 :   0.5000-0.2500 0.3333  plane waves:    1110
 k-point 182 :  -0.3750-0.2500 0.3333  plane waves:    1114
 k-point 183 :  -0.2500-0.2500 0.3333  plane waves:    1112
 k-point 184 :  -0.1250-0.2500 0.3333  plane waves:    1115
 k-point 185 :   0.0000-0.1250 0.3333  plane waves:    1114
 k-point 186 :   0.1250-0.1250 0.3333  plane waves:    1119
 k-point 187 :   0.2500-0.1250 0.3333  plane waves:    1115
 k-point 188 :   0.3750-0.1250 0.3333  plane waves:    1117
 k-point 189 :   0.5000-0.1250 0.3333  plane waves:    1124
 k-point 190 :  -0.3750-0.1250 0.3333  plane waves:    1117
 k-point 191 :  -0.2500-0.1250 0.3333  plane waves:    1115
 k-point 192 :  -0.1250-0.1250 0.3333  plane waves:    1119
 k-point 193 :   0.0000 0.0000 0.5000  plane waves:    1120
 k-point 194 :   0.1250-0.0000 0.5000  plane waves:    1116
 k-point 195 :   0.2500-0.0000 0.5000  plane waves:    1128
 k-point 196 :   0.3750-0.0000 0.5000  plane waves:    1124
 k-point 197 :   0.5000-0.0000 0.5000  plane waves:    1136
 k-point 198 :  -0.3750 0.0000 0.5000  plane waves:    1124
 k-point 199 :  -0.2500 0.0000 0.5000  plane waves:    1128
 k-point 200 :  -0.1250 0.0000 0.5000  plane waves:    1116
 k-point 201 :  -0.0000 0.1250 0.5000  plane waves:    1116
 k-point 202 :   0.1250 0.1250 0.5000  plane waves:    1102
 k-point 203 :   0.2500 0.1250 0.5000  plane waves:    1122
 k-point 204 :   0.3750 0.1250 0.5000  plane waves:    1134
 k-point 205 :   0.5000 0.1250 0.5000  plane waves:    1124
 k-point 206 :  -0.3750 0.1250 0.5000  plane waves:    1134
 k-point 207 :  -0.2500 0.1250 0.5000  plane waves:    1122
 k-point 208 :  -0.1250 0.1250 0.5000  plane waves:    1102
 k-point 209 :  -0.0000 0.2500 0.5000  plane waves:    1128
 k-point 210 :   0.1250 0.2500 0.5000  plane waves:    1122
 k-point 211 :   0.2500 0.2500 0.5000  plane waves:    1108
 k-point 212 :   0.3750 0.2500 0.5000  plane waves:    1114
 k-point 213 :   0.5000 0.2500 0.5000  plane waves:    1104
 k-point 214 :  -0.3750 0.2500 0.5000  plane waves:    1114
 k-point 215 :  -0.2500 0.2500 0.5000  plane waves:    1108
 k-point 216 :  -0.1250 0.2500 0.5000  plane waves:    1122
 k-point 217 :  -0.0000 0.3750 0.5000  plane waves:    1124
 k-point 218 :   0.1250 0.3750 0.5000  plane waves:    1134
 k-point 219 :   0.2500 0.3750 0.5000  plane waves:    1114
 k-point 220 :   0.3750 0.3750 0.5000  plane waves:    1108
 k-point 221 :   0.5000 0.3750 0.5000  plane waves:    1104
 k-point 222 :  -0.3750 0.3750 0.5000  plane waves:    1108
 k-point 223 :  -0.2500 0.3750 0.5000  plane waves:    1114
 k-point 224 :  -0.1250 0.3750 0.5000  plane waves:    1134
 k-point 225 :  -0.0000 0.5000 0.5000  plane waves:    1136
 k-point 226 :   0.1250 0.5000 0.5000  plane waves:    1124
 k-point 227 :   0.2500 0.5000 0.5000  plane waves:    1104
 k-point 228 :   0.3750 0.5000 0.5000  plane waves:    1104
 k-point 229 :   0.5000 0.5000 0.5000  plane waves:    1120
 k-point 230 :  -0.3750 0.5000 0.5000  plane waves:    1104
 k-point 231 :  -0.2500 0.5000 0.5000  plane waves:    1104
 k-point 232 :  -0.1250 0.5000 0.5000  plane waves:    1124
 k-point 233 :   0.0000-0.3750 0.5000  plane waves:    1124
 k-point 234 :   0.1250-0.3750 0.5000  plane waves:    1134
 k-point 235 :   0.2500-0.3750 0.5000  plane waves:    1114
 k-point 236 :   0.3750-0.3750 0.5000  plane waves:    1108
 k-point 237 :   0.5000-0.3750 0.5000  plane waves:    1104
 k-point 238 :  -0.3750-0.3750 0.5000  plane waves:    1108
 k-point 239 :  -0.2500-0.3750 0.5000  plane waves:    1114
 k-point 240 :  -0.1250-0.3750 0.5000  plane waves:    1134
 k-point 241 :   0.0000-0.2500 0.5000  plane waves:    1128
 k-point 242 :   0.1250-0.2500 0.5000  plane waves:    1122
 k-point 243 :   0.2500-0.2500 0.5000  plane waves:    1108
 k-point 244 :   0.3750-0.2500 0.5000  plane waves:    1114
 k-point 245 :   0.5000-0.2500 0.5000  plane waves:    1104
 k-point 246 :  -0.3750-0.2500 0.5000  plane waves:    1114
 k-point 247 :  -0.2500-0.2500 0.5000  plane waves:    1108
 k-point 248 :  -0.1250-0.2500 0.5000  plane waves:    1122
 k-point 249 :   0.0000-0.1250 0.5000  plane waves:    1116
 k-point 250 :   0.1250-0.1250 0.5000  plane waves:    1102
 k-point 251 :   0.2500-0.1250 0.5000  plane waves:    1122
 k-point 252 :   0.3750-0.1250 0.5000  plane waves:    1134
 k-point 253 :   0.5000-0.1250 0.5000  plane waves:    1124
 k-point 254 :  -0.3750-0.1250 0.5000  plane waves:    1134
 k-point 255 :  -0.2500-0.1250 0.5000  plane waves:    1122
 k-point 256 :  -0.1250-0.1250 0.5000  plane waves:    1102
 k-point 257 :   0.0000 0.0000-0.3333  plane waves:    1120
 k-point 258 :   0.1250-0.0000-0.3333  plane waves:    1114
 k-point 259 :   0.2500-0.0000-0.3333  plane waves:    1119
 k-point 260 :   0.3750-0.0000-0.3333  plane waves:    1119
 k-point 261 :   0.5000-0.0000-0.3333  plane waves:    1134
 k-point 262 :  -0.3750 0.0000-0.3333  plane waves:    1119
 k-point 263 :  -0.2500 0.0000-0.3333  plane waves:    1119
 k-point 264 :  -0.1250 0.0000-0.3333  plane waves:    1114
 k-point 265 :  -0.0000 0.1250-0.3333  plane waves:    1114
 k-point 266 :   0.1250 0.1250-0.3333  plane waves:    1119
 k-point 267 :   0.2500 0.1250-0.3333  plane waves:    1115
 k-point 268 :   0.3750 0.1250-0.3333  plane waves:    1117
 k-point 269 :   0.5000 0.1250-0.3333  plane waves:    1124
 k-point 270 :  -0.3750 0.1250-0.3333  plane waves:    1117
 k-point 271 :  -0.2500 0.1250-0.3333  plane waves:    1115
 k-point 272 :  -0.1250 0.1250-0.3333  plane waves:    1119
 k-point 273 :  -0.0000 0.2500-0.3333  plane waves:    1119
 k-point 274 :   0.1250 0.2500-0.3333  plane waves:    1115
 k-point 275 :   0.2500 0.2500-0.3333  plane waves:    1112
 k-point 276 :   0.3750 0.2500-0.3333  plane waves:    1114
 k-point 277 :   0.5000 0.2500-0.3333  plane waves:    1110
 k-point 278 :  -0.3750 0.2500-0.3333  plane waves:    1114
 k-point 279 :  -0.2500 0.2500-0.3333  plane waves:    1112
 k-point 280 :  -0.1250 0.2500-0.3333  plane waves:    1115
 k-point 281 :  -0.0000 0.3750-0.3333  plane waves:    1119
 k-point 282 :   0.1250 0.3750-0.3333  plane waves:    1117
 k-point 283 :   0.2500 0.3750-0.3333  plane waves:    1114
 k-point 284 :   0.3750 0.3750-0.3333  plane waves:    1115
 k-point 285 :   0.5000 0.3750-0.3333  plane waves:    1112
 k-point 286 :  -0.3750 0.3750-0.3333  plane waves:    1115
 k-point 287 :  -0.2500 0.3750-0.3333  plane waves:    1114
 k-point 288 :  -0.1250 0.3750-0.3333  plane waves:    1117
 k-point 289 :  -0.0000 0.5000-0.3333  plane waves:    1134
 k-point 290 :   0.1250 0.5000-0.3333  plane waves:    1124
 k-point 291 :   0.2500 0.5000-0.3333  plane waves:    1110
 k-point 292 :   0.3750 0.5000-0.3333  plane waves:    1112
 k-point 293 :   0.5000 0.5000-0.3333  plane waves:    1120
 k-point 294 :  -0.3750 0.5000-0.3333  plane waves:    1112
 k-point 295 :  -0.2500 0.5000-0.3333  plane waves:    1110
 k-point 296 :  -0.1250 0.5000-0.3333  plane waves:    1124
 k-point 297 :   0.0000-0.3750-0.3333  plane waves:    1119
 k-point 298 :   0.1250-0.3750-0.3333  plane waves:    1117
 k-point 299 :   0.2500-0.3750-0.3333  plane waves:    1114
 k-point 300 :   0.3750-0.3750-0.3333  plane waves:    1115
 k-point 301 :   0.5000-0.3750-0.3333  plane waves:    1112
 k-point 302 :  -0.3750-0.3750-0.3333  plane waves:    1115
 k-point 303 :  -0.2500-0.3750-0.3333  plane waves:    1114
 k-point 304 :  -0.1250-0.3750-0.3333  plane waves:    1117
 k-point 305 :   0.0000-0.2500-0.3333  plane waves:    1119
 k-point 306 :   0.1250-0.2500-0.3333  plane waves:    1115
 k-point 307 :   0.2500-0.2500-0.3333  plane waves:    1112
 k-point 308 :   0.3750-0.2500-0.3333  plane waves:    1114
 k-point 309 :   0.5000-0.2500-0.3333  plane waves:    1110
 k-point 310 :  -0.3750-0.2500-0.3333  plane waves:    1114
 k-point 311 :  -0.2500-0.2500-0.3333  plane waves:    1112
 k-point 312 :  -0.1250-0.2500-0.3333  plane waves:    1115
 k-point 313 :   0.0000-0.1250-0.3333  plane waves:    1114
 k-point 314 :   0.1250-0.1250-0.3333  plane waves:    1119
 k-point 315 :   0.2500-0.1250-0.3333  plane waves:    1115
 k-point 316 :   0.3750-0.1250-0.3333  plane waves:    1117
 k-point 317 :   0.5000-0.1250-0.3333  plane waves:    1124
 k-point 318 :  -0.3750-0.1250-0.3333  plane waves:    1117
 k-point 319 :  -0.2500-0.1250-0.3333  plane waves:    1115
 k-point 320 :  -0.1250-0.1250-0.3333  plane waves:    1119
 k-point 321 :   0.0000 0.0000-0.1667  plane waves:    1104
 k-point 322 :   0.1250-0.0000-0.1667  plane waves:    1110
 k-point 323 :   0.2500-0.0000-0.1667  plane waves:    1114
 k-point 324 :   0.3750-0.0000-0.1667  plane waves:    1117
 k-point 325 :   0.5000-0.0000-0.1667  plane waves:    1108
 k-point 326 :  -0.3750 0.0000-0.1667  plane waves:    1117
 k-point 327 :  -0.2500 0.0000-0.1667  plane waves:    1114
 k-point 328 :  -0.1250 0.0000-0.1667  plane waves:    1110
 k-point 329 :  -0.0000 0.1250-0.1667  plane waves:    1110
 k-point 330 :   0.1250 0.1250-0.1667  plane waves:    1118
 k-point 331 :   0.2500 0.1250-0.1667  plane waves:    1116
 k-point 332 :   0.3750 0.1250-0.1667  plane waves:    1113
 k-point 333 :   0.5000 0.1250-0.1667  plane waves:    1118
 k-point 334 :  -0.3750 0.1250-0.1667  plane waves:    1113
 k-point 335 :  -0.2500 0.1250-0.1667  plane waves:    1116
 k-point 336 :  -0.1250 0.1250-0.1667  plane waves:    1118
 k-point 337 :  -0.0000 0.2500-0.1667  plane waves:    1114
 k-point 338 :   0.1250 0.2500-0.1667  plane waves:    1116
 k-point 339 :   0.2500 0.2500-0.1667  plane waves:    1115
 k-point 340 :   0.3750 0.2500-0.1667  plane waves:    1110
 k-point 341 :   0.5000 0.2500-0.1667  plane waves:    1118
 k-point 342 :  -0.3750 0.2500-0.1667  plane waves:    1110
 k-point 343 :  -0.2500 0.2500-0.1667  plane waves:    1115
 k-point 344 :  -0.1250 0.2500-0.1667  plane waves:    1116
 k-point 345 :  -0.0000 0.3750-0.1667  plane waves:    1117
 k-point 346 :   0.1250 0.3750-0.1667  plane waves:    1113
 k-point 347 :   0.2500 0.3750-0.1667  plane waves:    1110
 k-point 348 :   0.3750 0.3750-0.1667  plane waves:    1114
 k-point 349 :   0.5000 0.3750-0.1667  plane waves:    1124
 k-point 350 :  -0.3750 0.3750-0.1667  plane waves:    1114
 k-point 351 :  -0.2500 0.3750-0.1667  plane waves:    1110
 k-point 352 :  -0.1250 0.3750-0.1667  plane waves:    1113
 k-point 353 :  -0.0000 0.5000-0.1667  plane waves:    1108
 k-point 354 :   0.1250 0.5000-0.1667  plane waves:    1118
 k-point 355 :   0.2500 0.5000-0.1667  plane waves:    1118
 k-point 356 :   0.3750 0.5000-0.1667  plane waves:    1124
 k-point 357 :   0.5000 0.5000-0.1667  plane waves:    1128
 k-point 358 :  -0.3750 0.5000-0.1667  plane waves:    1124
 k-point 359 :  -0.2500 0.5000-0.1667  plane waves:    1118
 k-point 360 :  -0.1250 0.5000-0.1667  plane waves:    1118
 k-point 361 :   0.0000-0.3750-0.1667  plane waves:    1117
 k-point 362 :   0.1250-0.3750-0.1667  plane waves:    1113
 k-point 363 :   0.2500-0.3750-0.1667  plane waves:    1110
 k-point 364 :   0.3750-0.3750-0.1667  plane waves:    1114
 k-point 365 :   0.5000-0.3750-0.1667  plane waves:    1124
 k-point 366 :  -0.3750-0.3750-0.1667  plane waves:    1114
 k-point 367 :  -0.2500-0.3750-0.1667  plane waves:    1110
 k-point 368 :  -0.1250-0.3750-0.1667  plane waves:    1113
 k-point 369 :   0.0000-0.2500-0.1667  plane waves:    1114
 k-point 370 :   0.1250-0.2500-0.1667  plane waves:    1116
 k-point 371 :   0.2500-0.2500-0.1667  plane waves:    1115
 k-point 372 :   0.3750-0.2500-0.1667  plane waves:    1110
 k-point 373 :   0.5000-0.2500-0.1667  plane waves:    1118
 k-point 374 :  -0.3750-0.2500-0.1667  plane waves:    1110
 k-point 375 :  -0.2500-0.2500-0.1667  plane waves:    1115
 k-point 376 :  -0.1250-0.2500-0.1667  plane waves:    1116
 k-point 377 :   0.0000-0.1250-0.1667  plane waves:    1110
 k-point 378 :   0.1250-0.1250-0.1667  plane waves:    1118
 k-point 379 :   0.2500-0.1250-0.1667  plane waves:    1116
 k-point 380 :   0.3750-0.1250-0.1667  plane waves:    1113
 k-point 381 :   0.5000-0.1250-0.1667  plane waves:    1118
 k-point 382 :  -0.3750-0.1250-0.1667  plane waves:    1113
 k-point 383 :  -0.2500-0.1250-0.1667  plane waves:    1116
 k-point 384 :  -0.1250-0.1250-0.1667  plane waves:    1118

 maximum and minimum number of plane-waves per node :      1136     1093

 maximum number of plane-waves:      1136
 maximum index in each direction: 
   IXMAX=    6   IYMAX=    6   IZMAX=    8
   IXMIN=   -6   IYMIN=   -6   IZMIN=   -8


 serial   3D FFT for wavefunctions
 parallel 3D FFT for charge:
    minimum data exchange during FFTs selected (reduces bandwidth)


 total amount of memory used by VASP MPI-rank0   166389. kBytes
=======================================================================

   base      :      30000. kBytes
   nonl-proj :     127475. kBytes
   fftplans  :        283. kBytes
   grid      :       1098. kBytes
   one-center:         62. kBytes
   wavefun   :       7471. kBytes
 
     INWAV:  cpu time      0.0000: real time      0.0000
 Broyden mixing: mesh for mixing (old mesh)
   NGX = 11   NGY = 11   NGZ = 17
  (NGX  = 48   NGY  = 48   NGZ  = 64)
  gives a total of   2057 points

 initial charge density was supplied:
 charge density of overlapping atoms calculated
 number of electron      36.0000000 magnetization 
 keeping initial charge density in first step


--------------------------------------------------------------------------------------------------------


 Maximum index for augmentation-charges         1006 (set IRDMAX)


--------------------------------------------------------------------------------------------------------


 First call to EWALD:  gamma=   0.550
 Maximum number of real-space cells 3x 3x 2
 Maximum number of reciprocal cells 3x 3x 3

    FEWALD:  cpu time      0.0019: real time      0.0021


--------------------------------------- Iteration      1(   1)  ---------------------------------------


    POTLOK:  cpu time      0.0155: real time      0.0297
    SETDIJ:  cpu time      0.0052: real time      0.0102
     EDDAV:  cpu time      4.8037: real time      4.8237
       DOS:  cpu time      0.0037: real time      0.0067
    --------------------------------------------
      LOOP:  cpu time      4.8281: real time      4.8704

 eigenvalue-minimisations  : 24576
 total energy-change (2. order) : 0.5132325E+02  (-0.2197078E+04)
 number of electron      36.0000000 magnetization 
 augmentation part       36.0000000 magnetization 

 Free energy of the ion-electron system (eV)
  ---------------------------------------------------
  alpha Z        PSCENC =       270.24219439
  Ewald energy   TEWEN  =     -3658.79987639
  -Hartree energ DENC   =      -883.15353532
  -exchange      EXHF   =         0.00000000
  -V(xc)+E(xc)   XCENC  =       131.60434684
  PAW double counting   =      3616.17691320    -4285.66495278
  entropy T*S    EENTRO =        -0.00030033
  eigenvalues    EBANDS =        34.18586230
  atomic energy  EATOM  =      4826.73260078
  Solvation  Ediel_sol  =         0.00000000
  ---------------------------------------------------
  free energy    TOTEN  =        51.32325269 eV

  energy without entropy =       51.32355302  energy(sigma->0) =       51.32340285


--------------------------------------------------------------------------------------------------------




--------------------------------------- Iteration      1(   2)  ---------------------------------------


     EDDAV:  cpu time      6.1424: real time      6.2346
       DOS:  cpu time      0.0019: real time      0.0020
    --------------------------------------------
      LOOP:  cpu time      6.1443: real time      6.2365

 eigenvalue-minimisations  : 28352
 total energy-change (2. order) :-0.7597908E+02  (-0.7564216E+02)
 number of electron      36.0000000 magnetization 
 augmentation part       36.0000000 magnetization 

 Free energy of the ion-electron system (eV)
  ---------------------------------------------------
  alpha Z        PSCENC =       270.24219439
  Ewald energy   TEWEN  =     -3658.79987639
  -Hartree energ DENC   =      -883.15353532
  -exchange      EXHF   =         0.00000000
  -V(xc)+E(xc)   XCENC  =       131.60434684
  PAW double counting   =      3616.17691320    -4285.66495278
  entropy T*S    EENTRO =        -0.00000000
  eigenvalues    EBANDS =       -41.79352254
  atomic energy  EATOM  =      4826.73260078
  Solvation  Ediel_sol  =         0.00000000
  ---------------------------------------------------
  free energy    TOTEN  =       -24.65583183 eV

  energy without entropy =      -24.65583183  energy(sigma->0) =      -24.65583183


--------------------------------------------------------------------------------------------------------




--------------------------------------- Iteration      1(   3)  ---------------------------------------


     EDDAV:  cpu time      6.8784: real time      6.9578
       DOS:  cpu time      0.0019: real time      0.0019
    --------------------------------------------
      LOOP:  cpu time      6.8803: real time      6.9597

 eigenvalue-minimisations  : 29952
 total energy-change (2. order) :-0.1032734E+01  (-0.1032734E+01)
 number of electron      36.0000000 magnetization 
 augmentation part       36.0000000 magnetization 

 Free energy of the ion-electron system (eV)
  ---------------------------------------------------
  alpha Z        PSCENC =       270.24219439
  Ewald energy   TEWEN  =     -3658.79987639
  -Hartree energ DENC   =      -883.15353532
  -exchange      EXHF   =         0.00000000
  -V(xc)+E(xc)   XCENC  =       131.60434684
  PAW double counting   =      3616.17691320    -4285.66495278
  entropy T*S    EENTRO =        -0.00000000
  eigenvalues    EBANDS =       -42.82625702
  atomic energy  EATOM  =      4826.73260078
  Solvation  Ediel_sol  =         0.00000000
  ---------------------------------------------------
  free energy    TOTEN  =       -25.68856631 eV

  energy without entropy =      -25.68856631  energy(sigma->0) =      -25.68856631


--------------------------------------------------------------------------------------------------------




--------------------------------------- Iteration      1(   4)  ---------------------------------------


     EDDAV:  cpu time     11.0841: real time     11.2550
       DOS:  cpu time      0.0015: real time      0.0015
    --------------------------------------------
      LOOP:  cpu time     11.0857: real time     11.2565

 eigenvalue-minimisations  : 38720
 total energy-change (2. order) :-0.2982195E-02  (-0.2982195E-02)
 number of electron      36.0000000 magnetization 
 augmentation part       36.0000000 magnetization 

 Free energy of the ion-electron system (eV)
  ---------------------------------------------------
  alpha Z        PSCENC =       270.24219439
  Ewald energy   TEWEN  =     -3658.79987639
  -Hartree energ DENC   =      -883.15353532
  -exchange      EXHF   =         0.00000000
  -V(xc)+E(xc)   XCENC  =       131.60434684
  PAW double counting   =      3616.17691320    -4285.66495278
  entropy T*S    EENTRO =        -0.00000000
  eigenvalues    EBANDS =       -42.82923922
  atomic energy  EATOM  =      4826.73260078
  Solvation  Ediel_sol  =         0.00000000
  ---------------------------------------------------
  free energy    TOTEN  =       -25.69154851 eV

  energy without entropy =      -25.69154851  energy(sigma->0) =      -25.69154851


--------------------------------------------------------------------------------------------------------




--------------------------------------- Iteration      1(   5)  ---------------------------------------


     EDDAV:  cpu time      8.6688: real time      8.9084
       DOS:  cpu time      0.0019: real time      0.0019
    CHARGE:  cpu time      0.0929: real time      0.1024
    MIXING:  cpu time      0.0057: real time      0.0102
    --------------------------------------------
      LOOP:  cpu time      8.7692: real time      9.0228

 eigenvalue-minimisations  : 31808
 total energy-change (2. order) :-0.1366268E-05  (-0.1366269E-05)
 number of electron      36.0000027 magnetization 
 augmentation part       17.7513696 magnetization 

 Broyden mixing:
  rms(total) = 0.10968E+01    rms(broyden)= 0.10966E+01
  rms(prec ) = 0.27301E+01
  weight for this iteration     100.00

 Free energy of the ion-electron system (eV)
  ---------------------------------------------------
  alpha Z        PSCENC =       270.24219439
  Ewald energy   TEWEN  =     -3658.79987639
  -Hartree energ DENC   =      -883.15353532
  -exchange      EXHF   =         0.00000000
  -V(xc)+E(xc)   XCENC  =       131.60434684
  PAW double counting   =      3616.17691320    -4285.66495278
  entropy T*S    EENTRO =        -0.00000000
  eigenvalues    EBANDS =       -42.82924059
  atomic energy  EATOM  =      4826.73260078
  Solvation  Ediel_sol  =         0.00000000
  ---------------------------------------------------
  free energy    TOTEN  =       -25.69154987 eV

  energy without entropy =      -25.69154987  energy(sigma->0) =      -25.69154987


--------------------------------------------------------------------------------------------------------




--------------------------------------- Iteration      1(   6)  ---------------------------------------


    POTLOK:  cpu time      0.0039: real time      0.0039
    SETDIJ:  cpu time      0.0019: real time      0.0023
     EDDAV:  cpu time      8.6835: real time      8.7825
       DOS:  cpu time      0.0017: real time      0.0017
    CHARGE:  cpu time      0.1077: real time      0.1084
    MIXING:  cpu time      0.0017: real time      0.0023
    --------------------------------------------
      LOOP:  cpu time      8.8005: real time      8.9011

 eigenvalue-minimisations  : 35584
 total energy-change (2. order) : 0.3890524E+01  (-0.2155391E+01)
 number of electron      36.0000027 magnetization 
 augmentation part       17.5488111 magnetization 

 Broyden mixing:
  rms(total) = 0.36247E+00    rms(broyden)= 0.36241E+00
  rms(prec ) = 0.52665E+00
  weight for this iteration     100.00

 eigenvalues of (default mixing * dielectric matrix)
  average eigenvalue GAMMA=   0.9654
  0.9654

 Free energy of the ion-electron system (eV)
  ---------------------------------------------------
  alpha Z        PSCENC =       270.24219439
  Ewald energy   TEWEN  =     -3658.79987639
  -Hartree energ DENC   =      -879.09825772
  -exchange      EXHF   =         0.00000000
  -V(xc)+E(xc)   XCENC  =       132.64933887
  PAW double counting   =      3871.37124958    -4538.86743635
  entropy T*S    EENTRO =        -0.00000000
  eigenvalues    EBANDS =       -46.03083926
  atomic energy  EATOM  =      4826.73260078
  Solvation  Ediel_sol  =         0.00000000
  ---------------------------------------------------
  free energy    TOTEN  =       -21.80102610 eV

  energy without entropy =      -21.80102610  energy(sigma->0) =      -21.80102610


--------------------------------------------------------------------------------------------------------




--------------------------------------- Iteration      1(   7)  ---------------------------------------


    POTLOK:  cpu time      0.0044: real time      0.0049
    SETDIJ:  cpu time      0.0025: real time      0.0025
     EDDAV:  cpu time      4.9382: real time      4.9921
       DOS:  cpu time      0.0019: real time      0.0019
    CHARGE:  cpu time      0.0985: real time      0.0992
    MIXING:  cpu time      0.0007: real time      0.0007
    --------------------------------------------
      LOOP:  cpu time      5.0462: real time      5.1013

 eigenvalue-minimisations  : 24832
 total energy-change (2. order) : 0.5773252E-01  (-0.2373765E-01)
 number of electron      36.0000026 magnetization 
 augmentation part       17.5112763 magnetization 

 Broyden mixing:
  rms(total) = 0.22006E+00    rms(broyden)= 0.22005E+00
  rms(prec ) = 0.31485E+00
  weight for this iteration     100.00

 eigenvalues of (default mixing * dielectric matrix)
  average eigenvalue GAMMA=   1.7215
  1.0537  2.3893

 Free energy of the ion-electron system (eV)
  ---------------------------------------------------
  alpha Z        PSCENC =       270.24219439
  Ewald energy   TEWEN  =     -3658.79987639
  -Hartree energ DENC   =      -875.94728735
  -exchange      EXHF   =         0.00000000
  -V(xc)+E(xc)   XCENC  =       132.60975627
  PAW double counting   =      4152.55478589    -4826.68654917
  entropy T*S    EENTRO =        -0.00000000
  eigenvalues    EBANDS =       -42.44891800
  atomic energy  EATOM  =      4826.73260078
  Solvation  Ediel_sol  =         0.00000000
  ---------------------------------------------------
  free energy    TOTEN  =       -21.74329358 eV

  energy without entropy =      -21.74329358  energy(sigma->0) =      -21.74329358


--------------------------------------------------------------------------------------------------------




--------------------------------------- Iteration      1(   8)  ---------------------------------------


    POTLOK:  cpu time      0.0050: real time      0.0050
    SETDIJ:  cpu time      0.0025: real time      0.0025
     EDDAV:  cpu time      7.8225: real time      7.9959
       DOS:  cpu time      0.0020: real time      0.0020
    CHARGE:  cpu time      0.0957: real time      0.0970
    MIXING:  cpu time      0.0005: real time      0.0005
    --------------------------------------------
      LOOP:  cpu time      7.9282: real time      8.1028

 eigenvalue-minimisations  : 31040
 total energy-change (2. order) : 0.2877516E-01  (-0.3834872E-02)
 number of electron      36.0000026 magnetization 
 augmentation part       17.4907451 magnetization 

 Broyden mixing:
  rms(total) = 0.21578E-01    rms(broyden)= 0.21574E-01
  rms(prec ) = 0.32362E-01
  weight for this iteration     100.00

 eigenvalues of (default mixing * dielectric matrix)
  average eigenvalue GAMMA=   1.6378
  2.3322  1.0496  1.5315

 Free energy of the ion-electron system (eV)
  ---------------------------------------------------
  alpha Z        PSCENC =       270.24219439
  Ewald energy   TEWEN  =     -3658.79987639
  -Hartree energ DENC   =      -869.52647474
  -exchange      EXHF   =         0.00000000
  -V(xc)+E(xc)   XCENC  =       132.40016544
  PAW double counting   =      4584.56695438    -5266.47022427
  entropy T*S    EENTRO =        -0.00000000
  eigenvalues    EBANDS =       -40.85985800
  atomic energy  EATOM  =      4826.73260078
  Solvation  Ediel_sol  =         0.00000000
  ---------------------------------------------------
  free energy    TOTEN  =       -21.71451842 eV

  energy without entropy =      -21.71451842  energy(sigma->0) =      -21.71451842


--------------------------------------------------------------------------------------------------------




--------------------------------------- Iteration      1(   9)  ---------------------------------------


    POTLOK:  cpu time      0.0048: real time      0.0048
    SETDIJ:  cpu time      0.0026: real time      0.0026
     EDDAV:  cpu time      5.5223: real time      5.5831
       DOS:  cpu time      0.0014: real time      0.0014
    CHARGE:  cpu time      0.0938: real time      0.0947
    MIXING:  cpu time      0.0007: real time      0.0007
    --------------------------------------------
      LOOP:  cpu time      5.6254: real time      5.6873

 eigenvalue-minimisations  : 26624
 total energy-change (2. order) : 0.6014689E-03  (-0.5354882E-03)
 number of electron      36.0000026 magnetization 
 augmentation part       17.4972470 magnetization 

 Broyden mixing:
  rms(total) = 0.72679E-02    rms(broyden)= 0.72669E-02
  rms(prec ) = 0.11262E-01
  weight for this iteration     100.00

 eigenvalues of (default mixing * dielectric matrix)
  average eigenvalue GAMMA=   1.7149
  2.3156  2.3156  1.0971  1.1313

 Free energy of the ion-electron system (eV)
  ---------------------------------------------------
  alpha Z        PSCENC =       270.24219439
  Ewald energy   TEWEN  =     -3658.79987639
  -Hartree energ DENC   =      -868.75022903
  -exchange      EXHF   =         0.00000000
  -V(xc)+E(xc)   XCENC  =       132.36475197
  PAW double counting   =      4573.28477658    -5254.17906520
  entropy T*S    EENTRO =        -0.00000000
  eigenvalues    EBANDS =       -42.60907006
  atomic energy  EATOM  =      4826.73260078
  Solvation  Ediel_sol  =         0.00000000
  ---------------------------------------------------
  free energy    TOTEN  =       -21.71391695 eV

  energy without entropy =      -21.71391695  energy(sigma->0) =      -21.71391695


--------------------------------------------------------------------------------------------------------




--------------------------------------- Iteration      1(  10)  ---------------------------------------


    POTLOK:  cpu time      0.0054: real time      0.0054
    SETDIJ:  cpu time      0.0025: real time      0.0025
     EDDAV:  cpu time      7.2811: real time      7.3649
       DOS:  cpu time      0.0015: real time      0.0015
    CHARGE:  cpu time      0.0902: real time      0.0910
    MIXING:  cpu time      0.0005: real time      0.0005
    --------------------------------------------
      LOOP:  cpu time      7.3811: real time      7.4657

 eigenvalue-minimisations  : 30912
 total energy-change (2. order) :-0.2857985E-04  (-0.4408055E-04)
 number of electron      36.0000026 magnetization 
 augmentation part       17.4975080 magnetization 

 Broyden mixing:
  rms(total) = 0.29174E-02    rms(broyden)= 0.29174E-02
  rms(prec ) = 0.47653E-02
  weight for this iteration     100.00

 eigenvalues of (default mixing * dielectric matrix)
  average eigenvalue GAMMA=   1.7169
  2.7625  2.3839  1.0172  1.0172  1.4039

 Free energy of the ion-electron system (eV)
  ---------------------------------------------------
  alpha Z        PSCENC =       270.24219439
  Ewald energy   TEWEN  =     -3658.79987639
  -Hartree energ DENC   =      -868.61589782
  -exchange      EXHF   =         0.00000000
  -V(xc)+E(xc)   XCENC  =       132.35471676
  PAW double counting   =      4577.24587837    -5258.34445417
  entropy T*S    EENTRO =        -0.00000000
  eigenvalues    EBANDS =       -42.52910745
  atomic energy  EATOM  =      4826.73260078
  Solvation  Ediel_sol  =         0.00000000
  ---------------------------------------------------
  free energy    TOTEN  =       -21.71394553 eV

  energy without entropy =      -21.71394553  energy(sigma->0) =      -21.71394553


--------------------------------------------------------------------------------------------------------




--------------------------------------- Iteration      1(  11)  ---------------------------------------


    POTLOK:  cpu time      0.0044: real time      0.0044
    SETDIJ:  cpu time      0.0023: real time      0.0023
     EDDAV:  cpu time      8.4528: real time      8.5498
       DOS:  cpu time      0.0019: real time      0.0019
    CHARGE:  cpu time      0.1671: real time      0.1689
    MIXING:  cpu time      0.0006: real time      0.0006
    --------------------------------------------
      LOOP:  cpu time      8.6290: real time      8.7278

 eigenvalue-minimisations  : 33824
 total energy-change (2. order) :-0.3802902E-05  (-0.5679069E-05)
 number of electron      36.0000026 magnetization 
 augmentation part       17.4969139 magnetization 

 Broyden mixing:
  rms(total) = 0.53858E-03    rms(broyden)= 0.53854E-03
  rms(prec ) = 0.67916E-03
  weight for this iteration     100.00

 eigenvalues of (default mixing * dielectric matrix)
  average eigenvalue GAMMA=   1.6167
  2.8258  2.4855  1.4310  0.9958  0.9809  0.9809

 Free energy of the ion-electron system (eV)
  ---------------------------------------------------
  alpha Z        PSCENC =       270.24219439
  Ewald energy   TEWEN  =     -3658.79987639
  -Hartree energ DENC   =      -868.61091320
  -exchange      EXHF   =         0.00000000
  -V(xc)+E(xc)   XCENC  =       132.35623181
  PAW double counting   =      4577.20434592    -5258.36682289
  entropy T*S    EENTRO =        -0.00000000
  eigenvalues    EBANDS =       -42.47170974
  atomic energy  EATOM  =      4826.73260078
  Solvation  Ediel_sol  =         0.00000000
  ---------------------------------------------------
  free energy    TOTEN  =       -21.71394933 eV

  energy without entropy =      -21.71394933  energy(sigma->0) =      -21.71394933


--------------------------------------------------------------------------------------------------------




--------------------------------------- Iteration      1(  12)  ---------------------------------------


    POTLOK:  cpu time      0.0052: real time      0.0052
    SETDIJ:  cpu time      0.0024: real time      0.0024
     EDDAV:  cpu time      7.8722: real time      8.0221
       DOS:  cpu time      0.0031: real time      0.0031
    --------------------------------------------
      LOOP:  cpu time      7.8829: real time      8.0328

 eigenvalue-minimisations  : 31008
 total energy-change (2. order) :-0.5629772E-09  (-0.9073734E-07)
 number of electron      36.0000026 magnetization 
 augmentation part       17.4969139 magnetization 

 Free energy of the ion-electron system (eV)
  ---------------------------------------------------
  alpha Z        PSCENC =       270.24219439
  Ewald energy   TEWEN  =     -3658.79987639
  -Hartree energ DENC   =      -868.62634027
  -exchange      EXHF   =         0.00000000
  -V(xc)+E(xc)   XCENC  =       132.35679809
  PAW double counting   =      4576.36706322    -5257.51943151
  entropy T*S    EENTRO =        -0.00000000
  eigenvalues    EBANDS =       -42.46695764
  atomic energy  EATOM  =      4826.73260078
  Solvation  Ediel_sol  =         0.00000000
  ---------------------------------------------------
  free energy    TOTEN  =       -21.71394933 eV

  energy without entropy =      -21.71394933  energy(sigma->0) =      -21.71394933


--------------------------------------------------------------------------------------------------------




 average (electrostatic) potential at core
  the test charge radii are     1.0314  0.7089
  (the norm of the test charge is              1.0000)
       1 -60.0254       2 -60.0254       3 -57.9850       4 -57.9850
 
 
 
 E-fermi :   9.8546     XC(G=0): -13.7911     alpha+bet :-18.3271

 Fermi energy:         9.8546112591

 k-point     1 :       0.0000    0.0000    0.0000
  band No.  band energies     occupation 
      1      -9.0908      2.00000
      2      -6.8810      2.00000
      3      -4.7292      2.00000
      4      -4.4610      2.00000
      5      -4.4610      2.00000
      6      -4.4610      2.00000
      7      -4.3235      2.00000
      8      -4.3235      2.00000
      9      -4.1709      2.00000
     10      -4.0685      2.00000
     11      -4.0685      2.00000
     12      -1.1531      2.00000
     13       1.3915      2.00000
     14       5.9882      2.00000
     15       5.9882      2.00000
     16       8.8510      2.00000
     17       8.8515      2.00000
     18       8.8515      2.00000
     19      10.9261      0.00000
     20      13.2472      0.00000
     21      17.4864      0.00000
     22      22.7112      0.00000
     23      24.9799      0.00000
     24      24.9799      0.00000
     25      24.9804      0.00000
     26      25.6773      0.00000
     27      25.6773      0.00000
     28      26.0246      0.00000
     29      27.1846      0.00000
     30      27.1846      0.00000
     31      27.1865      0.00000
     32      32.4289      0.00000

 k-point     2 :       0.1250   -0.0000    0.0000
  band No.  band energies     occupation 
      1      -8.8623      2.00000
      2      -6.7769      2.00000
      3      -4.7015      2.00000
      4      -4.4763      2.00000
      5      -4.4479      2.00000
      6      -4.4438      2.00000
      7      -4.3672      2.00000
      8      -4.3235      2.00000
      9      -4.2335      2.00000
     10      -4.1355      2.00000
     11      -4.0812      2.00000
     12      -1.2549      2.00000
     13       1.6941      2.00000
     14       4.8669      2.00000
     15       6.2839      2.00000
     16       7.8483      2.00000
     17       8.6220      2.00000
     18       9.0103      2.00000
     19      11.9347      0.00000
     20      14.1237      0.00000
     21      18.0614      0.00000
     22      22.4440      0.00000
     23      22.5586      0.00000
     24      23.8225      0.00000
     25      25.0048      0.00000
     26      25.2104      0.00000
     27      25.3401      0.00000
     28      25.6024      0.00000
     29      27.1098      0.00000
     30      27.6744      0.00000
     31      29.8036      0.00000
     32      33.4210      0.00000

 k-point     3 :       0.2500   -0.0000    0.0000
  band No.  band energies     occupation 
      1      -8.2065      2.00000
      2      -6.5121      2.00000
      3      -4.6426      2.00000
      4      -4.5105      2.00000
      5      -4.4895      2.00000
      6      -4.4691      2.00000
      7      -4.3957      2.00000
      8      -4.3790      2.00000
      9      -4.2852      2.00000
     10      -4.2506      2.00000
     11      -4.1182      2.00000
     12      -1.7076      2.00000
     13       2.5346      2.00000
     14       3.2704      2.00000
     15       6.0377      2.00000
     16       7.0861      2.00000
     17       7.8981      2.00000
     18       9.3583      2.00000
     19      13.4908      0.00000
     20      15.6147      0.00000
     21      19.1444      0.00000
     22      20.6974      0.00000
     23      21.4109      0.00000
     24      21.7409      0.00000
     25      22.8071      0.00000
     26      23.4513      0.00000
     27      25.9076      0.00000
     28      26.1320      0.00000
     29      28.1200      0.00000
     30      29.4038      0.00000
     31      33.7378      0.00000
     32      34.4940      0.00000

 k-point     4 :       0.3750   -0.0000    0.0000
  band No.  band energies     occupation 
      1      -7.2519      2.00000
      2      -6.2550      2.00000
      3      -4.6165      2.00000
      4      -4.5987      2.00000
      5      -4.5633      2.00000
      6      -4.5343      2.00000
      7      -4.5204      2.00000
      8      -4.4287      2.00000
      9      -4.3265      2.00000
     10      -4.1763      2.00000
     11      -4.0693      2.00000
     12      -2.6945      2.00000
     13       2.6646      2.00000
     14       3.7693      2.00000
     15       4.3537      2.00000
     16       6.6978      2.00000
     17       8.1566      2.00000
     18       9.5254      2.00000
     19      14.9940      0.00000
     20      16.9433      0.00000
     21      19.0305      0.00000
     22      19.2300      0.00000
     23      19.9663      0.00000
     24      20.8608      0.00000
     25      21.1625      0.00000
     26      21.8362      0.00000
     27      27.0877      0.00000
     28      28.5638      0.00000
     29      29.6940      0.00000
     30      30.9844      0.00000
     31      31.7180      0.00000
     32      34.2261      0.00000

 k-point     5 :       0.5000   -0.0000    0.0000
  band No.  band energies     occupation 
      1      -6.4102      2.00000
      2      -6.4102      2.00000
      3      -4.6532      2.00000
      4      -4.6532      2.00000
      5      -4.5892      2.00000
      6      -4.5892      2.00000
      7      -4.5142      2.00000
      8      -4.5142      2.00000
      9      -4.2491      2.00000
     10      -4.2491      2.00000
     11      -3.6508      2.00000
     12      -3.6508      2.00000
     13       3.1410      2.00000
     14       3.1410      2.00000
     15       5.2297      2.00000
     16       5.2297      2.00000
     17       9.1110      2.00000
     18       9.1110      2.00000
     19      16.6436      0.00000
     20      16.6436      0.00000
     21      18.4371      0.00000
     22      18.4371      0.00000
     23      20.1446      0.00000
     24      20.1446      0.00000
     25      20.8785      0.00000
     26      20.8785      0.00000
     27      28.7728      0.00000
     28      28.7728      0.00000
     29      31.7685      0.00000
     30      31.7685      0.00000
     31      31.8171      0.00000
     32      31.8171      0.00000

 k-point     6 :      -0.3750    0.0000    0.0000
  band No.  band energies     occupation 
      1      -7.2519      2.00000
      2      -6.2550      2.00000
      3      -4.6165      2.00000
      4      -4.5987      2.00000
      5      -4.5633      2.00000
      6      -4.5343      2.00000
      7      -4.5204      2.00000
      8      -4.4287      2.00000
      9      -4.3265      2.00000
     10      -4.1763      2.00000
     11      -4.0693      2.00000
     12      -2.6945      2.00000
     13       2.6646      2.00000
     14       3.7693      2.00000
     15       4.3537      2.00000
     16       6.6978      2.00000
     17       8.1566      2.00000
     18       9.5254      2.00000
     19      14.9940      0.00000
     20      16.9433      0.00000
     21      19.0305      0.00000
     22      19.2300      0.00000
     23      19.9663      0.00000
     24      20.8608      0.00000
     25      21.1625      0.00000
     26      21.8362      0.00000
     27      27.0877      0.00000
     28      28.5638      0.00000
     29      29.6940      0.00000
     30      30.9844      0.00000
     31      31.7180      0.00000
     32      34.2261      0.00000

 k-point     7 :      -0.2500    0.0000    0.0000
  band No.  band energies     occupation 
      1      -8.2065      2.00000
      2      -6.5121      2.00000
      3      -4.6426      2.00000
      4      -4.5105      2.00000
      5      -4.4895      2.00000
      6      -4.4691      2.00000
      7      -4.3957      2.00000
      8      -4.3790      2.00000
      9      -4.2852      2.00000
     10      -4.2506      2.00000
     11      -4.1182      2.00000
     12      -1.7076      2.00000
     13       2.5346      2.00000
     14       3.2704      2.00000
     15       6.0377      2.00000
     16       7.0861      2.00000
     17       7.8981      2.00000
     18       9.3583      2.00000
     19      13.4908      0.00000
     20      15.6147      0.00000
     21      19.1444      0.00000
     22      20.6974      0.00000
     23      21.4109      0.00000
     24      21.7409      0.00000
     25      22.8071      0.00000
     26      23.4513      0.00000
     27      25.9076      0.00000
     28      26.1320      0.00000
     29      28.1200      0.00000
     30      29.4038      0.00000
     31      33.7378      0.00000
     32      34.4940      0.00000

 k-point     8 :      -0.1250    0.0000    0.0000
  band No.  band energies     occupation 
      1      -8.8623      2.00000
      2      -6.7769      2.00000
      3      -4.7015      2.00000
      4      -4.4763      2.00000
      5      -4.4479      2.00000
      6      -4.4438      2.00000
      7      -4.3672      2.00000
      8      -4.3235      2.00000
      9      -4.2335      2.00000
     10      -4.1355      2.00000
     11      -4.0812      2.00000
     12      -1.2549      2.00000
     13       1.6941      2.00000
     14       4.8669      2.00000
     15       6.2839      2.00000
     16       7.8483      2.00000
     17       8.6220      2.00000
     18       9.0103      2.00000
     19      11.9347      0.00000
     20      14.1237      0.00000
     21      18.0614      0.00000
     22      22.4440      0.00000
     23      22.5586      0.00000
     24      23.8225      0.00000
     25      25.0048      0.00000
     26      25.2104      0.00000
     27      25.3401      0.00000
     28      25.6024      0.00000
     29      27.1098      0.00000
     30      27.6744      0.00000
     31      29.8036      0.00000
     32      33.4210      0.00000

 k-point     9 :      -0.0000    0.1250    0.0000
  band No.  band energies     occupation 
      1      -8.8623      2.00000
      2      -6.7769      2.00000
      3      -4.7015      2.00000
      4      -4.4763      2.00000
      5      -4.4479      2.00000
      6      -4.4438      2.00000
      7      -4.3672      2.00000
      8      -4.3235      2.00000
      9      -4.2335      2.00000
     10      -4.1355      2.00000
     11      -4.0812      2.00000
     12      -1.2549      2.00000
     13       1.6941      2.00000
     14       4.8669      2.00000
     15       6.2839      2.00000
     16       7.8483      2.00000
     17       8.6220      2.00000
     18       9.0103      2.00000
     19      11.9347      0.00000
     20      14.1237      0.00000
     21      18.0614      0.00000
     22      22.4440      0.00000
     23      22.5586      0.00000
     24      23.8225      0.00000
     25      25.0048      0.00000
     26      25.2104      0.00000
     27      25.3401      0.00000
     28      25.6024      0.00000
     29      27.1098      0.00000
     30      27.6744      0.00000
     31      29.8036      0.00000
     32      33.4210      0.00000

 k-point    10 :       0.1250    0.1250    0.0000
  band No.  band energies     occupation 
      1      -8.6452      2.00000
      2      -6.6926      2.00000
      3      -4.6687      2.00000
      4      -4.5000      2.00000
      5      -4.4311      2.00000
      6      -4.4177      2.00000
      7      -4.4176      2.00000
      8      -4.3012      2.00000
      9      -4.2941      2.00000
     10      -4.2157      2.00000
     11      -4.0685      2.00000
     12      -1.3004      2.00000
     13       1.9777      2.00000
     14       5.1393      2.00000
     15       5.1466      2.00000
     16       7.6597      2.00000
     17       8.4255      2.00000
     18       8.4261      2.00000
     19      13.0187      0.00000
     20      14.8582      0.00000
     21      18.5611      0.00000
     22      21.8731      0.00000
     23      22.1648      0.00000
     24      22.6230      0.00000
     25      23.4669      0.00000
     26      24.0691      0.00000
     27      24.0697      0.00000
     28      26.6364      0.00000
     29      29.9215      0.00000
     30      29.9224      0.00000
     31      30.2890      0.00000
     32      32.8856      0.00000

 k-point    11 :       0.2500    0.1250    0.0000
  band No.  band energies     occupation 
      1      -8.0326      2.00000
      2      -6.4911      2.00000
      3      -4.5980      2.00000
      4      -4.5406      2.00000
      5      -4.5178      2.00000
      6      -4.4151      2.00000
      7      -4.3862      2.00000
      8      -4.3627      2.00000
      9      -4.3574      2.00000
     10      -4.2512      2.00000
     11      -4.0882      2.00000
     12      -1.5970      2.00000
     13       2.7719      2.00000
     14       3.4422      2.00000
     15       5.9158      2.00000
     16       6.1089      2.00000
     17       7.7900      2.00000
     18       8.5447      2.00000
     19      14.6337      0.00000
     20      15.9685      0.00000
     21      19.4329      0.00000
     22      20.0282      0.00000
     23      20.3554      0.00000
     24      21.4304      0.00000
     25      22.0190      0.00000
     26      23.5630      0.00000
     27      24.4878      0.00000
     28      27.6183      0.00000
     29      30.9343      0.00000
     30      31.1532      0.00000
     31      31.9148      0.00000
     32      34.7759      0.00000

 k-point    12 :       0.3750    0.1250    0.0000
  band No.  band energies     occupation 
      1      -7.1855      2.00000
      2      -6.3349      2.00000
      3      -4.5835      2.00000
      4      -4.5700      2.00000
      5      -4.5531      2.00000
      6      -4.4852      2.00000
      7      -4.4491      2.00000
      8      -4.4296      2.00000
      9      -4.2895      2.00000
     10      -4.1394      2.00000
     11      -4.0552      2.00000
     12      -2.4530      2.00000
     13       2.7327      2.00000
     14       3.9455      2.00000
     15       4.4346      2.00000
     16       6.7005      2.00000
     17       7.0099      2.00000
     18       8.6419      2.00000
     19      15.8076      0.00000
     20      16.3648      0.00000
     21      18.6526      0.00000
     22      18.7886      0.00000
     23      19.6285      0.00000
     24      20.5175      0.00000
     25      22.0590      0.00000
     26      22.6462      0.00000
     27      25.6760      0.00000
     28      29.4398      0.00000
     29      29.6472      0.00000
     30      32.3623      0.00000
     31      32.7618      0.00000
     32      36.6761      0.00000

 k-point    13 :       0.5000    0.1250    0.0000
  band No.  band energies     occupation 
      1      -6.5046      2.00000
      2      -6.5046      2.00000
      3      -4.5733      2.00000
      4      -4.5733      2.00000
      5      -4.5581      2.00000
      6      -4.5581      2.00000
      7      -4.4406      2.00000
      8      -4.4406      2.00000
      9      -4.2105      2.00000
     10      -4.2105      2.00000
     11      -3.4975      2.00000
     12      -3.4975      2.00000
     13       3.1997      2.00000
     14       3.1997      2.00000
     15       5.3296      2.00000
     16       5.3296      2.00000
     17       8.0859      2.00000
     18       8.0859      2.00000
     19      16.2960      0.00000
     20      16.2960      0.00000
     21      18.3007      0.00000
     22      18.3007      0.00000
     23      19.7901      0.00000
     24      19.7901      0.00000
     25      22.1636      0.00000
     26      22.1636      0.00000
     27      27.3493      0.00000
     28      27.3493      0.00000
     29      32.6656      0.00000
     30      32.6656      0.00000
     31      34.3046      0.00000
     32      34.3046      0.00000

 k-point    14 :      -0.3750    0.1250    0.0000
  band No.  band energies     occupation 
      1      -7.1855      2.00000
      2      -6.3349      2.00000
      3      -4.5835      2.00000
      4      -4.5700      2.00000
      5      -4.5531      2.00000
      6      -4.4852      2.00000
      7      -4.4491      2.00000
      8      -4.4296      2.00000
      9      -4.2895      2.00000
     10      -4.1394      2.00000
     11      -4.0552      2.00000
     12      -2.4530      2.00000
     13       2.7327      2.00000
     14       3.9455      2.00000
     15       4.4346      2.00000
     16       6.7005      2.00000
     17       7.0099      2.00000
     18       8.6419      2.00000
     19      15.8076      0.00000
     20      16.3648      0.00000
     21      18.6526      0.00000
     22      18.7886      0.00000
     23      19.6285      0.00000
     24      20.5175      0.00000
     25      22.0590      0.00000
     26      22.6462      0.00000
     27      25.6760      0.00000
     28      29.4398      0.00000
     29      29.6472      0.00000
     30      32.3623      0.00000
     31      32.7618      0.00000
     32      36.6762      0.00000

 k-point    15 :      -0.2500    0.1250    0.0000
  band No.  band energies     occupation 
      1      -8.0326      2.00000
      2      -6.4911      2.00000
      3      -4.5980      2.00000
      4      -4.5406      2.00000
      5      -4.5178      2.00000
      6      -4.4151      2.00000
      7      -4.3862      2.00000
      8      -4.3627      2.00000
      9      -4.3574      2.00000
     10      -4.2512      2.00000
     11      -4.0882      2.00000
     12      -1.5970      2.00000
     13       2.7719      2.00000
     14       3.4422      2.00000
     15       5.9158      2.00000
     16       6.1089      2.00000
     17       7.7900      2.00000
     18       8.5447      2.00000
     19      14.6337      0.00000
     20      15.9685      0.00000
     21      19.4329      0.00000
     22      20.0282      0.00000
     23      20.3554      0.00000
     24      21.4304      0.00000
     25      22.0190      0.00000
     26      23.5630      0.00000
     27      24.4878      0.00000
     28      27.6183      0.00000
     29      30.9343      0.00000
     30      31.1532      0.00000
     31      31.9148      0.00000
     32      34.7759      0.00000

 k-point    16 :      -0.1250    0.1250    0.0000
  band No.  band energies     occupation 
      1      -8.6452      2.00000
      2      -6.6926      2.00000
      3      -4.6687      2.00000
      4      -4.5000      2.00000
      5      -4.4311      2.00000
      6      -4.4177      2.00000
      7      -4.4176      2.00000
      8      -4.3012      2.00000
      9      -4.2941      2.00000
     10      -4.2157      2.00000
     11      -4.0685      2.00000
     12      -1.3004      2.00000
     13       1.9777      2.00000
     14       5.1393      2.00000
     15       5.1466      2.00000
     16       7.6597      2.00000
     17       8.4255      2.00000
     18       8.4261      2.00000
     19      13.0187      0.00000
     20      14.8582      0.00000
     21      18.5611      0.00000
     22      21.8731      0.00000
     23      22.1648      0.00000
     24      22.6230      0.00000
     25      23.4669      0.00000
     26      24.0691      0.00000
     27      24.0697      0.00000
     28      26.6364      0.00000
     29      29.9215      0.00000
     30      29.9224      0.00000
     31      30.2890      0.00000
     32      32.8856      0.00000

 k-point    17 :      -0.0000    0.2500    0.0000
  band No.  band energies     occupation 
      1      -8.2065      2.00000
      2      -6.5121      2.00000
      3      -4.6426      2.00000
      4      -4.5105      2.00000
      5      -4.4895      2.00000
      6      -4.4691      2.00000
      7      -4.3957      2.00000
      8      -4.3790      2.00000
      9      -4.2852      2.00000
     10      -4.2506      2.00000
     11      -4.1182      2.00000
     12      -1.7076      2.00000
     13       2.5346      2.00000
     14       3.2704      2.00000
     15       6.0377      2.00000
     16       7.0861      2.00000
     17       7.8981      2.00000
     18       9.3583      2.00000
     19      13.4908      0.00000
     20      15.6147      0.00000
     21      19.1444      0.00000
     22      20.6974      0.00000
     23      21.4109      0.00000
     24      21.7409      0.00000
     25      22.8071      0.00000
     26      23.4513      0.00000
     27      25.9076      0.00000
     28      26.1320      0.00000
     29      28.1200      0.00000
     30      29.4038      0.00000
     31      33.7378      0.00000
     32      34.4940      0.00000

 k-point    18 :       0.1250    0.2500    0.0000
  band No.  band energies     occupation 
      1      -8.0326      2.00000
      2      -6.4911      2.00000
      3      -4.5980      2.00000
      4      -4.5406      2.00000
      5      -4.5178      2.00000
      6      -4.4151      2.00000
      7      -4.3862      2.00000
      8      -4.3627      2.00000
      9      -4.3574      2.00000
     10      -4.2512      2.00000
     11      -4.0882      2.00000
     12      -1.5970      2.00000
     13       2.7719      2.00000
     14       3.4422      2.00000
     15       5.9158      2.00000
     16       6.1089      2.00000
     17       7.7900      2.00000
     18       8.5447      2.00000
     19      14.6337      0.00000
     20      15.9685      0.00000
     21      19.4329      0.00000
     22      20.0282      0.00000
     23      20.3554      0.00000
     24      21.4304      0.00000
     25      22.0190      0.00000
     26      23.5630      0.00000
     27      24.4878      0.00000
     28      27.6183      0.00000
     29      30.9343      0.00000
     30      31.1532      0.00000
     31      31.9148      0.00000
     32      34.7759      0.00000

 k-point    19 :       0.2500    0.2500    0.0000
  band No.  band energies     occupation 
      1      -7.5770      2.00000
      2      -6.4670      2.00000
      3      -4.5945      2.00000
      4      -4.4825      2.00000
      5      -4.4825      2.00000
      6      -4.4584      2.00000
      7      -4.4008      2.00000
      8      -4.2949      2.00000
      9      -4.2949      2.00000
     10      -4.2473      2.00000
     11      -4.0684      2.00000
     12      -1.4509      2.00000
     13       3.4434      2.00000
     14       3.4434      2.00000
     15       4.5925      2.00000
     16       5.8025      2.00000
     17       7.4044      2.00000
     18       7.4051      2.00000
     19      15.2210      0.00000
     20      15.6620      0.00000
     21      19.4023      0.00000
     22      19.7014      0.00000
     23      20.6093      0.00000
     24      20.6117      0.00000
     25      20.6121      0.00000
     26      24.1211      0.00000
     27      24.1221      0.00000
     28      29.6692      0.00000
     29      29.6699      0.00000
     30      34.2725      0.00000
     31      34.9597      0.00000
     32      34.9602      0.00000

 k-point    20 :       0.3750    0.2500    0.0000
  band No.  band energies     occupation 
      1      -7.0501      2.00000
      2      -6.5131      2.00000
      3      -4.6363      2.00000
      4      -4.5866      2.00000
      5      -4.4450      2.00000
      6      -4.3359      2.00000
      7      -4.3250      2.00000
      8      -4.2191      2.00000
      9      -4.2160      2.00000
     10      -4.0883      2.00000
     11      -3.8795      2.00000
     12      -1.8336      2.00000
     13       2.6823      2.00000
     14       4.4199      2.00000
     15       4.4384      2.00000
     16       5.3338      2.00000
     17       6.6488      2.00000
     18       7.1255      2.00000
     19      13.9210      0.00000
     20      14.8795      0.00000
     21      18.7375      0.00000
     22      19.6127      0.00000
     23      20.3495      0.00000
     24      20.4285      0.00000
     25      22.4100      0.00000
     26      24.1599      0.00000
     27      24.8768      0.00000
     28      27.7777      0.00000
     29      31.9850      0.00000
     30      35.0628      0.00000
     31      36.7765      0.00000
     32      37.8474      0.00000

 k-point    21 :       0.5000    0.2500    0.0000
  band No.  band energies     occupation 
      1      -6.6860      2.00000
      2      -6.6860      2.00000
      3      -4.6391      2.00000
      4      -4.6391      2.00000
      5      -4.3825      2.00000
      6      -4.3825      2.00000
      7      -4.2351      2.00000
      8      -4.2351      2.00000
      9      -4.1419      2.00000
     10      -4.1419      2.00000
     11      -2.9025      2.00000
     12      -2.9025      2.00000
     13       3.1415      2.00000
     14       3.1415      2.00000
     15       5.5848      2.00000
     16       5.5848      2.00000
     17       6.4296      2.00000
     18       6.4296      2.00000
     19      13.8645      0.00000
     20      13.8645      0.00000
     21      18.8601      0.00000
     22      18.8601      0.00000
     23      20.5864      0.00000
     24      20.5864      0.00000
     25      23.6109      0.00000
     26      23.6109      0.00000
     27      26.1676      0.00000
     28      26.1676      0.00000
     29      34.8083      0.00000
     30      34.8083      0.00000
     31      38.6273      0.00000
     32      38.6273      0.00000

 k-point    22 :      -0.3750    0.2500    0.0000
  band No.  band energies     occupation 
      1      -7.0501      2.00000
      2      -6.5131      2.00000
      3      -4.6363      2.00000
      4      -4.5866      2.00000
      5      -4.4450      2.00000
      6      -4.3359      2.00000
      7      -4.3250      2.00000
      8      -4.2191      2.00000
      9      -4.2160      2.00000
     10      -4.0883      2.00000
     11      -3.8795      2.00000
     12      -1.8336      2.00000
     13       2.6823      2.00000
     14       4.4199      2.00000
     15       4.4384      2.00000
     16       5.3338      2.00000
     17       6.6488      2.00000
     18       7.1255      2.00000
     19      13.9210      0.00000
     20      14.8795      0.00000
     21      18.7375      0.00000
     22      19.6127      0.00000
     23      20.3495      0.00000
     24      20.4285      0.00000
     25      22.4100      0.00000
     26      24.1599      0.00000
     27      24.8768      0.00000
     28      27.7777      0.00000
     29      31.9850      0.00000
     30      35.0628      0.00000
     31      36.7765      0.00000
     32      37.8474      0.00000

 k-point    23 :      -0.2500    0.2500    0.0000
  band No.  band energies     occupation 
      1      -7.5770      2.00000
      2      -6.4670      2.00000
      3      -4.5945      2.00000
      4      -4.4825      2.00000
      5      -4.4825      2.00000
      6      -4.4584      2.00000
      7      -4.4008      2.00000
      8      -4.2949      2.00000
      9      -4.2949      2.00000
     10      -4.2473      2.00000
     11      -4.0684      2.00000
     12      -1.4509      2.00000
     13       3.4434      2.00000
     14       3.4434      2.00000
     15       4.5925      2.00000
     16       5.8025      2.00000
     17       7.4044      2.00000
     18       7.4051      2.00000
     19      15.2210      0.00000
     20      15.6620      0.00000
     21      19.4023      0.00000
     22      19.7014      0.00000
     23      20.6093      0.00000
     24      20.6117      0.00000
     25      20.6121      0.00000
     26      24.1211      0.00000
     27      24.1221      0.00000
     28      29.6692      0.00000
     29      29.6699      0.00000
     30      34.2725      0.00000
     31      34.9597      0.00000
     32      34.9602      0.00000

 k-point    24 :      -0.1250    0.2500    0.0000
  band No.  band energies     occupation 
      1      -8.0326      2.00000
      2      -6.4911      2.00000
      3      -4.5980      2.00000
      4      -4.5406      2.00000
      5      -4.5178      2.00000
      6      -4.4151      2.00000
      7      -4.3862      2.00000
      8      -4.3627      2.00000
      9      -4.3574      2.00000
     10      -4.2512      2.00000
     11      -4.0882      2.00000
     12      -1.5970      2.00000
     13       2.7719      2.00000
     14       3.4422      2.00000
     15       5.9158      2.00000
     16       6.1089      2.00000
     17       7.7900      2.00000
     18       8.5447      2.00000
     19      14.6337      0.00000
     20      15.9685      0.00000
     21      19.4329      0.00000
     22      20.0282      0.00000
     23      20.3554      0.00000
     24      21.4304      0.00000
     25      22.0190      0.00000
     26      23.5630      0.00000
     27      24.4878      0.00000
     28      27.6183      0.00000
     29      30.9343      0.00000
     30      31.1532      0.00000
     31      31.9148      0.00000
     32      34.7759      0.00000

 k-point    25 :      -0.0000    0.3750    0.0000
  band No.  band energies     occupation 
      1      -7.2519      2.00000
      2      -6.2550      2.00000
      3      -4.6165      2.00000
      4      -4.5987      2.00000
      5      -4.5633      2.00000
      6      -4.5343      2.00000
      7      -4.5204      2.00000
      8      -4.4287      2.00000
      9      -4.3265      2.00000
     10      -4.1763      2.00000
     11      -4.0693      2.00000
     12      -2.6945      2.00000
     13       2.6646      2.00000
     14       3.7693      2.00000
     15       4.3537      2.00000
     16       6.6978      2.00000
     17       8.1566      2.00000
     18       9.5254      2.00000
     19      14.9940      0.00000
     20      16.9433      0.00000
     21      19.0305      0.00000
     22      19.2300      0.00000
     23      19.9663      0.00000
     24      20.8608      0.00000
     25      21.1625      0.00000
     26      21.8362      0.00000
     27      27.0877      0.00000
     28      28.5638      0.00000
     29      29.6940      0.00000
     30      30.9844      0.00000
     31      31.7180      0.00000
     32      34.2261      0.00000

 k-point    26 :       0.1250    0.3750    0.0000
  band No.  band energies     occupation 
      1      -7.1855      2.00000
      2      -6.3349      2.00000
      3      -4.5835      2.00000
      4      -4.5700      2.00000
      5      -4.5531      2.00000
      6      -4.4852      2.00000
      7      -4.4491      2.00000
      8      -4.4296      2.00000
      9      -4.2895      2.00000
     10      -4.1394      2.00000
     11      -4.0552      2.00000
     12      -2.4530      2.00000
     13       2.7327      2.00000
     14       3.9455      2.00000
     15       4.4346      2.00000
     16       6.7005      2.00000
     17       7.0099      2.00000
     18       8.6419      2.00000
     19      15.8076      0.00000
     20      16.3648      0.00000
     21      18.6526      0.00000
     22      18.7886      0.00000
     23      19.6285      0.00000
     24      20.5175      0.00000
     25      22.0590      0.00000
     26      22.6462      0.00000
     27      25.6760      0.00000
     28      29.4398      0.00000
     29      29.6472      0.00000
     30      32.3623      0.00000
     31      32.7618      0.00000
     32      36.6761      0.00000

 k-point    27 :       0.2500    0.3750    0.0000
  band No.  band energies     occupation 
      1      -7.0501      2.00000
      2      -6.5131      2.00000
      3      -4.6363      2.00000
      4      -4.5866      2.00000
      5      -4.4450      2.00000
      6      -4.3359      2.00000
      7      -4.3250      2.00000
      8      -4.2191      2.00000
      9      -4.2160      2.00000
     10      -4.0883      2.00000
     11      -3.8795      2.00000
     12      -1.8336      2.00000
     13       2.6823      2.00000
     14       4.4199      2.00000
     15       4.4384      2.00000
     16       5.3338      2.00000
     17       6.6488      2.00000
     18       7.1255      2.00000
     19      13.9210      0.00000
     20      14.8795      0.00000
     21      18.7375      0.00000
     22      19.6127      0.00000
     23      20.3495      0.00000
     24      20.4285      0.00000
     25      22.4100      0.00000
     26      24.1599      0.00000
     27      24.8768      0.00000
     28      27.7777      0.00000
     29      31.9850      0.00000
     30      35.0628      0.00000
     31      36.7765      0.00000
     32      37.8474      0.00000

 k-point    28 :       0.3750    0.3750    0.0000
  band No.  band energies     occupation 
      1      -6.9336      2.00000
      2      -6.6926      2.00000
      3      -4.6896      2.00000
      4      -4.6687      2.00000
      5      -4.2941      2.00000
      6      -4.2157      2.00000
      7      -4.1933      2.00000
      8      -4.1422      2.00000
      9      -4.1422      2.00000
     10      -4.0685      2.00000
     11      -3.0640      2.00000
     12      -1.3007      2.00000
     13       1.9777      2.00000
     14       3.5252      2.00000
     15       5.1392      2.00000
     16       5.1470      2.00000
     17       6.3999      2.00000
     18       6.4006      2.00000
     19      12.0777      0.00000
     20      13.0191      0.00000
     21      17.9593      0.00000
     22      18.5615      0.00000
     23      21.7118      0.00000
     24      22.1644      0.00000
     25      23.4666      0.00000
     26      25.0794      0.00000
     27      25.0806      0.00000
     28      26.6373      0.00000
     29      34.7343      0.00000
     30      36.6382      0.00000
     31      39.8804      0.00000
     32      40.8367      0.00000

 k-point    29 :       0.5000    0.3750    0.0000
  band No.  band energies     occupation 
      1      -6.8290      2.00000
      2      -6.8290      2.00000
      3      -4.7046      2.00000
      4      -4.7046      2.00000
      5      -4.2171      2.00000
      6      -4.2171      2.00000
      7      -4.1223      2.00000
      8      -4.1223      2.00000
      9      -4.0883      2.00000
     10      -4.0883      2.00000
     11      -1.8909      2.00000
     12      -1.8909      2.00000
     13       2.2533      2.00000
     14       2.2533      2.00000
     15       5.8641      2.00000
     16       5.8641      2.00000
     17       5.8656      2.00000
     18       5.8656      2.00000
     19      11.8000      0.00000
     20      11.8000      0.00000
     21      17.8901      0.00000
     22      17.8901      0.00000
     23      22.2600      0.00000
     24      22.2600      0.00000
     25      24.9432      0.00000
     26      24.9432      0.00000
     27      25.7545      0.00000
     28      25.7545      0.00000
     29      37.4151      0.00000
     30      37.4151      0.00000
     31      39.9366      0.00000
     32      39.9366      0.00000

 k-point    30 :      -0.3750    0.3750    0.0000
  band No.  band energies     occupation 
      1      -6.9336      2.00000
      2      -6.6926      2.00000
      3      -4.6896      2.00000
      4      -4.6687      2.00000
      5      -4.2941      2.00000
      6      -4.2157      2.00000
      7      -4.1933      2.00000
      8      -4.1422      2.00000
      9      -4.1422      2.00000
     10      -4.0685      2.00000
     11      -3.0640      2.00000
     12      -1.3007      2.00000
     13       1.9777      2.00000
     14       3.5252      2.00000
     15       5.1392      2.00000
     16       5.1470      2.00000
     17       6.3999      2.00000
     18       6.4006      2.00000
     19      12.0777      0.00000
     20      13.0191      0.00000
     21      17.9593      0.00000
     22      18.5615      0.00000
     23      21.7118      0.00000
     24      22.1644      0.00000
     25      23.4666      0.00000
     26      25.0794      0.00000
     27      25.0806      0.00000
     28      26.6373      0.00000
     29      34.7343      0.00000
     30      36.6382      0.00000
     31      39.8804      0.00000
     32      40.8367      0.00000

 k-point    31 :      -0.2500    0.3750    0.0000
  band No.  band energies     occupation 
      1      -7.0501      2.00000
      2      -6.5131      2.00000
      3      -4.6363      2.00000
      4      -4.5866      2.00000
      5      -4.4450      2.00000
      6      -4.3359      2.00000
      7      -4.3250      2.00000
      8      -4.2191      2.00000
      9      -4.2160      2.00000
     10      -4.0883      2.00000
     11      -3.8795      2.00000
     12      -1.8336      2.00000
     13       2.6823      2.00000
     14       4.4199      2.00000
     15       4.4384      2.00000
     16       5.3338      2.00000
     17       6.6488      2.00000
     18       7.1255      2.00000
     19      13.9210      0.00000
     20      14.8795      0.00000
     21      18.7375      0.00000
     22      19.6127      0.00000
     23      20.3495      0.00000
     24      20.4285      0.00000
     25      22.4100      0.00000
     26      24.1599      0.00000
     27      24.8768      0.00000
     28      27.7777      0.00000
     29      31.9850      0.00000
     30      35.0628      0.00000
     31      36.7765      0.00000
     32      37.8474      0.00000

 k-point    32 :      -0.1250    0.3750    0.0000
  band No.  band energies     occupation 
      1      -7.1855      2.00000
      2      -6.3349      2.00000
      3      -4.5835      2.00000
      4      -4.5700      2.00000
      5      -4.5531      2.00000
      6      -4.4852      2.00000
      7      -4.4491      2.00000
      8      -4.4296      2.00000
      9      -4.2895      2.00000
     10      -4.1394      2.00000
     11      -4.0552      2.00000
     12      -2.4530      2.00000
     13       2.7327      2.00000
     14       3.9455      2.00000
     15       4.4346      2.00000
     16       6.7005      2.00000
     17       7.0099      2.00000
     18       8.6419      2.00000
     19      15.8076      0.00000
     20      16.3648      0.00000
     21      18.6526      0.00000
     22      18.7886      0.00000
     23      19.6285      0.00000
     24      20.5175      0.00000
     25      22.0590      0.00000
     26      22.6462      0.00000
     27      25.6760      0.00000
     28      29.4398      0.00000
     29      29.6472      0.00000
     30      32.3623      0.00000
     31      32.7618      0.00000
     32      36.6761      0.00000

 k-point    33 :      -0.0000    0.5000    0.0000
  band No.  band energies     occupation 
      1      -6.4102      2.00000
      2      -6.4102      2.00000
      3      -4.6532      2.00000
      4      -4.6532      2.00000
      5      -4.5892      2.00000
      6      -4.5892      2.00000
      7      -4.5142      2.00000
      8      -4.5142      2.00000
      9      -4.2491      2.00000
     10      -4.2491      2.00000
     11      -3.6508      2.00000
     12      -3.6508      2.00000
     13       3.1410      2.00000
     14       3.1410      2.00000
     15       5.2297      2.00000
     16       5.2297      2.00000
     17       9.1110      2.00000
     18       9.1110      2.00000
     19      16.6436      0.00000
     20      16.6436      0.00000
     21      18.4371      0.00000
     22      18.4371      0.00000
     23      20.1446      0.00000
     24      20.1446      0.00000
     25      20.8785      0.00000
     26      20.8785      0.00000
     27      28.7728      0.00000
     28      28.7728      0.00000
     29      31.7685      0.00000
     30      31.7685      0.00000
     31      31.8171      0.00000
     32      31.8171      0.00000

 k-point    34 :       0.1250    0.5000    0.0000
  band No.  band energies     occupation 
      1      -6.5046      2.00000
      2      -6.5046      2.00000
      3      -4.5733      2.00000
      4      -4.5733      2.00000
      5      -4.5581      2.00000
      6      -4.5581      2.00000
      7      -4.4406      2.00000
      8      -4.4406      2.00000
      9      -4.2105      2.00000
     10      -4.2105      2.00000
     11      -3.4975      2.00000
     12      -3.4975      2.00000
     13       3.1997      2.00000
     14       3.1997      2.00000
     15       5.3296      2.00000
     16       5.3296      2.00000
     17       8.0859      2.00000
     18       8.0859      2.00000
     19      16.2960      0.00000
     20      16.2960      0.00000
     21      18.3007      0.00000
     22      18.3007      0.00000
     23      19.7901      0.00000
     24      19.7901      0.00000
     25      22.1636      0.00000
     26      22.1636      0.00000
     27      27.3493      0.00000
     28      27.3493      0.00000
     29      32.6656      0.00000
     30      32.6656      0.00000
     31      34.3046      0.00000
     32      34.3046      0.00000

 k-point    35 :       0.2500    0.5000    0.0000
  band No.  band energies     occupation 
      1      -6.6860      2.00000
      2      -6.6860      2.00000
      3      -4.6391      2.00000
      4      -4.6391      2.00000
      5      -4.3825      2.00000
      6      -4.3825      2.00000
      7      -4.2351      2.00000
      8      -4.2351      2.00000
      9      -4.1419      2.00000
     10      -4.1419      2.00000
     11      -2.9025      2.00000
     12      -2.9025      2.00000
     13       3.1415      2.00000
     14       3.1415      2.00000
     15       5.5848      2.00000
     16       5.5848      2.00000
     17       6.4296      2.00000
     18       6.4296      2.00000
     19      13.8645      0.00000
     20      13.8645      0.00000
     21      18.8601      0.00000
     22      18.8601      0.00000
     23      20.5864      0.00000
     24      20.5864      0.00000
     25      23.6109      0.00000
     26      23.6109      0.00000
     27      26.1676      0.00000
     28      26.1676      0.00000
     29      34.8083      0.00000
     30      34.8083      0.00000
     31      38.6273      0.00000
     32      38.6273      0.00000

 k-point    36 :       0.3750    0.5000    0.0000
  band No.  band energies     occupation 
      1      -6.8290      2.00000
      2      -6.8290      2.00000
      3      -4.7046      2.00000
      4      -4.7046      2.00000
      5      -4.2171      2.00000
      6      -4.2171      2.00000
      7      -4.1223      2.00000
      8      -4.1223      2.00000
      9      -4.0883      2.00000
     10      -4.0883      2.00000
     11      -1.8909      2.00000
     12      -1.8909      2.00000
     13       2.2533      2.00000
     14       2.2533      2.00000
     15       5.8641      2.00000
     16       5.8641      2.00000
     17       5.8656      2.00000
     18       5.8656      2.00000
     19      11.8000      0.00000
     20      11.8000      0.00000
     21      17.8901      0.00000
     22      17.8901      0.00000
     23      22.2600      0.00000
     24      22.2600      0.00000
     25      24.9432      0.00000
     26      24.9432      0.00000
     27      25.7545      0.00000
     28      25.7545      0.00000
     29      37.4151      0.00000
     30      37.4151      0.00000
     31      39.9366      0.00000
     32      39.9366      0.00000

 k-point    37 :       0.5000    0.5000    0.0000
  band No.  band energies     occupation 
      1      -6.8811      2.00000
      2      -6.8811      2.00000
      3      -4.7292      2.00000
      4      -4.7292      2.00000
      5      -4.1709      2.00000
      6      -4.1709      2.00000
      7      -4.0686      2.00000
      8      -4.0686      2.00000
      9      -4.0685      2.00000
     10      -4.0685      2.00000
     11      -1.1535      2.00000
     12      -1.1535      2.00000
     13       1.3915      2.00000
     14       1.3915      2.00000
     15       5.9881      2.00000
     16       5.9881      2.00000
     17       5.9888      2.00000
     18       5.9888      2.00000
     19      10.9266      0.00000
     20      10.9266      0.00000
     21      17.4868      0.00000
     22      17.4868      0.00000
     23      22.7109      0.00000
     24      22.7109      0.00000
     25      25.6771      0.00000
     26      25.6771      0.00000
     27      25.6783      0.00000
     28      25.6783      0.00000
     29      39.7739      0.00000
     30      39.7739      0.00000
     31      40.1664      0.00000
     32      40.1664      0.00000

 k-point    38 :      -0.3750    0.5000    0.0000
  band No.  band energies     occupation 
      1      -6.8290      2.00000
      2      -6.8290      2.00000
      3      -4.7046      2.00000
      4      -4.7046      2.00000
      5      -4.2171      2.00000
      6      -4.2171      2.00000
      7      -4.1223      2.00000
      8      -4.1223      2.00000
      9      -4.0883      2.00000
     10      -4.0883      2.00000
     11      -1.8909      2.00000
     12      -1.8909      2.00000
     13       2.2533      2.00000
     14       2.2533      2.00000
     15       5.8641      2.00000
     16       5.8641      2.00000
     17       5.8656      2.00000
     18       5.8656      2.00000
     19      11.8000      0.00000
     20      11.8000      0.00000
     21      17.8901      0.00000
     22      17.8901      0.00000
     23      22.2600      0.00000
     24      22.2600      0.00000
     25      24.9432      0.00000
     26      24.9432      0.00000
     27      25.7545      0.00000
     28      25.7545      0.00000
     29      37.4151      0.00000
     30      37.4151      0.00000
     31      39.9366      0.00000
     32      39.9366      0.00000

 k-point    39 :      -0.2500    0.5000    0.0000
  band No.  band energies     occupation 
      1      -6.6860      2.00000
      2      -6.6860      2.00000
      3      -4.6391      2.00000
      4      -4.6391      2.00000
      5      -4.3825      2.00000
      6      -4.3825      2.00000
      7      -4.2351      2.00000
      8      -4.2351      2.00000
      9      -4.1419      2.00000
     10      -4.1419      2.00000
     11      -2.9025      2.00000
     12      -2.9025      2.00000
     13       3.1415      2.00000
     14       3.1415      2.00000
     15       5.5848      2.00000
     16       5.5848      2.00000
     17       6.4296      2.00000
     18       6.4296      2.00000
     19      13.8645      0.00000
     20      13.8645      0.00000
     21      18.8601      0.00000
     22      18.8601      0.00000
     23      20.5864      0.00000
     24      20.5864      0.00000
     25      23.6109      0.00000
     26      23.6109      0.00000
     27      26.1676      0.00000
     28      26.1676      0.00000
     29      34.8083      0.00000
     30      34.8083      0.00000
     31      38.6273      0.00000
     32      38.6273      0.00000

 k-point    40 :      -0.1250    0.5000    0.0000
  band No.  band energies     occupation 
      1      -6.5046      2.00000
      2      -6.5046      2.00000
      3      -4.5733      2.00000
      4      -4.5733      2.00000
      5      -4.5581      2.00000
      6      -4.5581      2.00000
      7      -4.4406      2.00000
      8      -4.4406      2.00000
      9      -4.2105      2.00000
     10      -4.2105      2.00000
     11      -3.4975      2.00000
     12      -3.4975      2.00000
     13       3.1997      2.00000
     14       3.1997      2.00000
     15       5.3296      2.00000
     16       5.3296      2.00000
     17       8.0859      2.00000
     18       8.0859      2.00000
     19      16.2960      0.00000
     20      16.2960      0.00000
     21      18.3007      0.00000
     22      18.3007      0.00000
     23      19.7901      0.00000
     24      19.7901      0.00000
     25      22.1636      0.00000
     26      22.1636      0.00000
     27      27.3493      0.00000
     28      27.3493      0.00000
     29      32.6656      0.00000
     30      32.6656      0.00000
     31      34.3046      0.00000
     32      34.3046      0.00000

 k-point    41 :       0.0000   -0.3750    0.0000
  band No.  band energies     occupation 
      1      -7.2519      2.00000
      2      -6.2550      2.00000
      3      -4.6165      2.00000
      4      -4.5987      2.00000
      5      -4.5633      2.00000
      6      -4.5343      2.00000
      7      -4.5204      2.00000
      8      -4.4287      2.00000
      9      -4.3265      2.00000
     10      -4.1763      2.00000
     11      -4.0693      2.00000
     12      -2.6945      2.00000
     13       2.6646      2.00000
     14       3.7693      2.00000
     15       4.3537      2.00000
     16       6.6978      2.00000
     17       8.1566      2.00000
     18       9.5254      2.00000
     19      14.9940      0.00000
     20      16.9433      0.00000
     21      19.0305      0.00000
     22      19.2300      0.00000
     23      19.9663      0.00000
     24      20.8608      0.00000
     25      21.1625      0.00000
     26      21.8362      0.00000
     27      27.0877      0.00000
     28      28.5638      0.00000
     29      29.6940      0.00000
     30      30.9844      0.00000
     31      31.7180      0.00000
     32      34.2261      0.00000

 k-point    42 :       0.1250   -0.3750    0.0000
  band No.  band energies     occupation 
      1      -7.1855      2.00000
      2      -6.3349      2.00000
      3      -4.5835      2.00000
      4      -4.5700      2.00000
      5      -4.5531      2.00000
      6      -4.4852      2.00000
      7      -4.4491      2.00000
      8      -4.4296      2.00000
      9      -4.2895      2.00000
     10      -4.1394      2.00000
     11      -4.0552      2.00000
     12      -2.4530      2.00000
     13       2.7327      2.00000
     14       3.9455      2.00000
     15       4.4346      2.00000
     16       6.7005      2.00000
     17       7.0099      2.00000
     18       8.6419      2.00000
     19      15.8076      0.00000
     20      16.3648      0.00000
     21      18.6526      0.00000
     22      18.7886      0.00000
     23      19.6285      0.00000
     24      20.5175      0.00000
     25      22.0590      0.00000
     26      22.6462      0.00000
     27      25.6760      0.00000
     28      29.4398      0.00000
     29      29.6472      0.00000
     30      32.3623      0.00000
     31      32.7618      0.00000
     32      36.6761      0.00000

 k-point    43 :       0.2500   -0.3750    0.0000
  band No.  band energies     occupation 
      1      -7.0501      2.00000
      2      -6.5131      2.00000
      3      -4.6363      2.00000
      4      -4.5866      2.00000
      5      -4.4450      2.00000
      6      -4.3359      2.00000
      7      -4.3250      2.00000
      8      -4.2191      2.00000
      9      -4.2160      2.00000
     10      -4.0883      2.00000
     11      -3.8795      2.00000
     12      -1.8336      2.00000
     13       2.6823      2.00000
     14       4.4199      2.00000
     15       4.4384      2.00000
     16       5.3338      2.00000
     17       6.6488      2.00000
     18       7.1255      2.00000
     19      13.9210      0.00000
     20      14.8795      0.00000
     21      18.7375      0.00000
     22      19.6127      0.00000
     23      20.3495      0.00000
     24      20.4285      0.00000
     25      22.4100      0.00000
     26      24.1599      0.00000
     27      24.8768      0.00000
     28      27.7777      0.00000
     29      31.9850      0.00000
     30      35.0628      0.00000
     31      36.7765      0.00000
     32      37.8474      0.00000

 k-point    44 :       0.3750   -0.3750    0.0000
  band No.  band energies     occupation 
      1      -6.9336      2.00000
      2      -6.6926      2.00000
      3      -4.6896      2.00000
      4      -4.6687      2.00000
      5      -4.2941      2.00000
      6      -4.2157      2.00000
      7      -4.1933      2.00000
      8      -4.1422      2.00000
      9      -4.1422      2.00000
     10      -4.0685      2.00000
     11      -3.0640      2.00000
     12      -1.3007      2.00000
     13       1.9777      2.00000
     14       3.5252      2.00000
     15       5.1392      2.00000
     16       5.1470      2.00000
     17       6.3999      2.00000
     18       6.4006      2.00000
     19      12.0777      0.00000
     20      13.0191      0.00000
     21      17.9593      0.00000
     22      18.5615      0.00000
     23      21.7118      0.00000
     24      22.1644      0.00000
     25      23.4666      0.00000
     26      25.0794      0.00000
     27      25.0806      0.00000
     28      26.6373      0.00000
     29      34.7343      0.00000
     30      36.6382      0.00000
     31      39.8804      0.00000
     32      40.8367      0.00000

 k-point    45 :       0.5000   -0.3750    0.0000
  band No.  band energies     occupation 
      1      -6.8290      2.00000
      2      -6.8290      2.00000
      3      -4.7046      2.00000
      4      -4.7046      2.00000
      5      -4.2171      2.00000
      6      -4.2171      2.00000
      7      -4.1223      2.00000
      8      -4.1223      2.00000
      9      -4.0883      2.00000
     10      -4.0883      2.00000
     11      -1.8909      2.00000
     12      -1.8909      2.00000
     13       2.2533      2.00000
     14       2.2533      2.00000
     15       5.8641      2.00000
     16       5.8641      2.00000
     17       5.8656      2.00000
     18       5.8656      2.00000
     19      11.8000      0.00000
     20      11.8000      0.00000
     21      17.8901      0.00000
     22      17.8901      0.00000
     23      22.2600      0.00000
     24      22.2600      0.00000
     25      24.9432      0.00000
     26      24.9432      0.00000
     27      25.7545      0.00000
     28      25.7545      0.00000
     29      37.4151      0.00000
     30      37.4151      0.00000
     31      39.9366      0.00000
     32      39.9366      0.00000

 k-point    46 :      -0.3750   -0.3750    0.0000
  band No.  band energies     occupation 
      1      -6.9336      2.00000
      2      -6.6926      2.00000
      3      -4.6896      2.00000
      4      -4.6687      2.00000
      5      -4.2941      2.00000
      6      -4.2157      2.00000
      7      -4.1933      2.00000
      8      -4.1422      2.00000
      9      -4.1422      2.00000
     10      -4.0685      2.00000
     11      -3.0640      2.00000
     12      -1.3007      2.00000
     13       1.9777      2.00000
     14       3.5252      2.00000
     15       5.1392      2.00000
     16       5.1470      2.00000
     17       6.3999      2.00000
     18       6.4006      2.00000
     19      12.0777      0.00000
     20      13.0191      0.00000
     21      17.9593      0.00000
     22      18.5615      0.00000
     23      21.7118      0.00000
     24      22.1644      0.00000
     25      23.4666      0.00000
     26      25.0794      0.00000
     27      25.0806      0.00000
     28      26.6373      0.00000
     29      34.7343      0.00000
     30      36.6382      0.00000
     31      39.8804      0.00000
     32      40.8367      0.00000

 k-point    47 :      -0.2500   -0.3750    0.0000
  band No.  band energies     occupation 
      1      -7.0501      2.00000
      2      -6.5131      2.00000
      3      -4.6363      2.00000
      4      -4.5866      2.00000
      5      -4.4450      2.00000
      6      -4.3359      2.00000
      7      -4.3250      2.00000
      8      -4.2191      2.00000
      9      -4.2160      2.00000
     10      -4.0883      2.00000
     11      -3.8795      2.00000
     12      -1.8336      2.00000
     13       2.6823      2.00000
     14       4.4199      2.00000
     15       4.4384      2.00000
     16       5.3338      2.00000
     17       6.6488      2.00000
     18       7.1255      2.00000
     19      13.9210      0.00000
     20      14.8795      0.00000
     21      18.7375      0.00000
     22      19.6127      0.00000
     23      20.3495      0.00000
     24      20.4285      0.00000
     25      22.4100      0.00000
     26      24.1599      0.00000
     27      24.8768      0.00000
     28      27.7777      0.00000
     29      31.9850      0.00000
     30      35.0628      0.00000
     31      36.7765      0.00000
     32      37.8474      0.00000

 k-point    48 :      -0.1250   -0.3750    0.0000
  band No.  band energies     occupation 
      1      -7.1855      2.00000
      2      -6.3349      2.00000
      3      -4.5835      2.00000
      4      -4.5700      2.00000
      5      -4.5531      2.00000
      6      -4.4852      2.00000
      7      -4.4491      2.00000
      8      -4.4296      2.00000
      9      -4.2895      2.00000
     10      -4.1394      2.00000
     11      -4.0552      2.00000
     12      -2.4530      2.00000
     13       2.7327      2.00000
     14       3.9455      2.00000
     15       4.4346      2.00000
     16       6.7005      2.00000
     17       7.0099      2.00000
     18       8.6419      2.00000
     19      15.8076      0.00000
     20      16.3648      0.00000
     21      18.6526      0.00000
     22      18.7886      0.00000
     23      19.6285      0.00000
     24      20.5175      0.00000
     25      22.0590      0.00000
     26      22.6462      0.00000
     27      25.6760      0.00000
     28      29.4398      0.00000
     29      29.6472      0.00000
     30      32.3623      0.00000
     31      32.7618      0.00000
     32      36.6761      0.00000

 k-point    49 :       0.0000   -0.2500    0.0000
  band No.  band energies     occupation 
      1      -8.2065      2.00000
      2      -6.5121      2.00000
      3      -4.6426      2.00000
      4      -4.5105      2.00000
      5      -4.4895      2.00000
      6      -4.4691      2.00000
      7      -4.3957      2.00000
      8      -4.3790      2.00000
      9      -4.2852      2.00000
     10      -4.2506      2.00000
     11      -4.1182      2.00000
     12      -1.7076      2.00000
     13       2.5346      2.00000
     14       3.2704      2.00000
     15       6.0377      2.00000
     16       7.0861      2.00000
     17       7.8981      2.00000
     18       9.3583      2.00000
     19      13.4908      0.00000
     20      15.6147      0.00000
     21      19.1444      0.00000
     22      20.6974      0.00000
     23      21.4109      0.00000
     24      21.7409      0.00000
     25      22.8071      0.00000
     26      23.4513      0.00000
     27      25.9076      0.00000
     28      26.1320      0.00000
     29      28.1200      0.00000
     30      29.4038      0.00000
     31      33.7378      0.00000
     32      34.4940      0.00000

 k-point    50 :       0.1250   -0.2500    0.0000
  band No.  band energies     occupation 
      1      -8.0326      2.00000
      2      -6.4911      2.00000
      3      -4.5980      2.00000
      4      -4.5406      2.00000
      5      -4.5178      2.00000
      6      -4.4151      2.00000
      7      -4.3862      2.00000
      8      -4.3627      2.00000
      9      -4.3574      2.00000
     10      -4.2512      2.00000
     11      -4.0882      2.00000
     12      -1.5970      2.00000
     13       2.7719      2.00000
     14       3.4422      2.00000
     15       5.9158      2.00000
     16       6.1089      2.00000
     17       7.7900      2.00000
     18       8.5447      2.00000
     19      14.6337      0.00000
     20      15.9685      0.00000
     21      19.4329      0.00000
     22      20.0282      0.00000
     23      20.3554      0.00000
     24      21.4304      0.00000
     25      22.0190      0.00000
     26      23.5630      0.00000
     27      24.4878      0.00000
     28      27.6183      0.00000
     29      30.9343      0.00000
     30      31.1532      0.00000
     31      31.9148      0.00000
     32      34.7759      0.00000

 k-point    51 :       0.2500   -0.2500    0.0000
  band No.  band energies     occupation 
      1      -7.5770      2.00000
      2      -6.4670      2.00000
      3      -4.5945      2.00000
      4      -4.4825      2.00000
      5      -4.4825      2.00000
      6      -4.4584      2.00000
      7      -4.4008      2.00000
      8      -4.2949      2.00000
      9      -4.2949      2.00000
     10      -4.2473      2.00000
     11      -4.0684      2.00000
     12      -1.4509      2.00000
     13       3.4434      2.00000
     14       3.4434      2.00000
     15       4.5925      2.00000
     16       5.8025      2.00000
     17       7.4044      2.00000
     18       7.4051      2.00000
     19      15.2210      0.00000
     20      15.6620      0.00000
     21      19.4023      0.00000
     22      19.7014      0.00000
     23      20.6093      0.00000
     24      20.6117      0.00000
     25      20.6121      0.00000
     26      24.1211      0.00000
     27      24.1221      0.00000
     28      29.6692      0.00000
     29      29.6699      0.00000
     30      34.2725      0.00000
     31      34.9597      0.00000
     32      34.9602      0.00000

 k-point    52 :       0.3750   -0.2500    0.0000
  band No.  band energies     occupation 
      1      -7.0501      2.00000
      2      -6.5131      2.00000
      3      -4.6363      2.00000
      4      -4.5866      2.00000
      5      -4.4450      2.00000
      6      -4.3359      2.00000
      7      -4.3250      2.00000
      8      -4.2191      2.00000
      9      -4.2160      2.00000
     10      -4.0883      2.00000
     11      -3.8795      2.00000
     12      -1.8336      2.00000
     13       2.6823      2.00000
     14       4.4199      2.00000
     15       4.4384      2.00000
     16       5.3338      2.00000
     17       6.6488      2.00000
     18       7.1255      2.00000
     19      13.9210      0.00000
     20      14.8795      0.00000
     21      18.7375      0.00000
     22      19.6127      0.00000
     23      20.3495      0.00000
     24      20.4285      0.00000
     25      22.4100      0.00000
     26      24.1599      0.00000
     27      24.8768      0.00000
     28      27.7777      0.00000
     29      31.9850      0.00000
     30      35.0628      0.00000
     31      36.7765      0.00000
     32      37.8474      0.00000

 k-point    53 :       0.5000   -0.2500    0.0000
  band No.  band energies     occupation 
      1      -6.6860      2.00000
      2      -6.6860      2.00000
      3      -4.6391      2.00000
      4      -4.6391      2.00000
      5      -4.3825      2.00000
      6      -4.3825      2.00000
      7      -4.2351      2.00000
      8      -4.2351      2.00000
      9      -4.1419      2.00000
     10      -4.1419      2.00000
     11      -2.9025      2.00000
     12      -2.9025      2.00000
     13       3.1415      2.00000
     14       3.1415      2.00000
     15       5.5848      2.00000
     16       5.5848      2.00000
     17       6.4296      2.00000
     18       6.4296      2.00000
     19      13.8645      0.00000
     20      13.8645      0.00000
     21      18.8601      0.00000
     22      18.8601      0.00000
     23      20.5864      0.00000
     24      20.5864      0.00000
     25      23.6109      0.00000
     26      23.6109      0.00000
     27      26.1676      0.00000
     28      26.1676      0.00000
     29      34.8083      0.00000
     30      34.8083      0.00000
     31      38.6273      0.00000
     32      38.6273      0.00000

 k-point    54 :      -0.3750   -0.2500    0.0000
  band No.  band energies     occupation 
      1      -7.0501      2.00000
      2      -6.5131      2.00000
      3      -4.6363      2.00000
      4      -4.5866      2.00000
      5      -4.4450      2.00000
      6      -4.3359      2.00000
      7      -4.3250      2.00000
      8      -4.2191      2.00000
      9      -4.2160      2.00000
     10      -4.0883      2.00000
     11      -3.8795      2.00000
     12      -1.8336      2.00000
     13       2.6823      2.00000
     14       4.4199      2.00000
     15       4.4384      2.00000
     16       5.3338      2.00000
     17       6.6488      2.00000
     18       7.1255      2.00000
     19      13.9210      0.00000
     20      14.8795      0.00000
     21      18.7375      0.00000
     22      19.6127      0.00000
     23      20.3495      0.00000
     24      20.4285      0.00000
     25      22.4100      0.00000
     26      24.1599      0.00000
     27      24.8768      0.00000
     28      27.7777      0.00000
     29      31.9850      0.00000
     30      35.0628      0.00000
     31      36.7765      0.00000
     32      37.8474      0.00000

 k-point    55 :      -0.2500   -0.2500    0.0000
  band No.  band energies     occupation 
      1      -7.5770      2.00000
      2      -6.4670      2.00000
      3      -4.5945      2.00000
      4      -4.4825      2.00000
      5      -4.4825      2.00000
      6      -4.4584      2.00000
      7      -4.4008      2.00000
      8      -4.2949      2.00000
      9      -4.2949      2.00000
     10      -4.2473      2.00000
     11      -4.0684      2.00000
     12      -1.4509      2.00000
     13       3.4434      2.00000
     14       3.4434      2.00000
     15       4.5925      2.00000
     16       5.8025      2.00000
     17       7.4044      2.00000
     18       7.4051      2.00000
     19      15.2210      0.00000
     20      15.6620      0.00000
     21      19.4023      0.00000
     22      19.7014      0.00000
     23      20.6093      0.00000
     24      20.6117      0.00000
     25      20.6121      0.00000
     26      24.1211      0.00000
     27      24.1221      0.00000
     28      29.6692      0.00000
     29      29.6699      0.00000
     30      34.2725      0.00000
     31      34.9597      0.00000
     32      34.9602      0.00000

 k-point    56 :      -0.1250   -0.2500    0.0000
  band No.  band energies     occupation 
      1      -8.0326      2.00000
      2      -6.4911      2.00000
      3      -4.5980      2.00000
      4      -4.5406      2.00000
      5      -4.5178      2.00000
      6      -4.4151      2.00000
      7      -4.3862      2.00000
      8      -4.3627      2.00000
      9      -4.3574      2.00000
     10      -4.2512      2.00000
     11      -4.0882      2.00000
     12      -1.5970      2.00000
     13       2.7719      2.00000
     14       3.4422      2.00000
     15       5.9158      2.00000
     16       6.1089      2.00000
     17       7.7900      2.00000
     18       8.5447      2.00000
     19      14.6337      0.00000
     20      15.9685      0.00000
     21      19.4329      0.00000
     22      20.0282      0.00000
     23      20.3554      0.00000
     24      21.4304      0.00000
     25      22.0190      0.00000
     26      23.5630      0.00000
     27      24.4878      0.00000
     28      27.6183      0.00000
     29      30.9343      0.00000
     30      31.1532      0.00000
     31      31.9148      0.00000
     32      34.7759      0.00000

 k-point    57 :       0.0000   -0.1250    0.0000
  band No.  band energies     occupation 
      1      -8.8623      2.00000
      2      -6.7769      2.00000
      3      -4.7015      2.00000
      4      -4.4763      2.00000
      5      -4.4479      2.00000
      6      -4.4438      2.00000
      7      -4.3672      2.00000
      8      -4.3235      2.00000
      9      -4.2335      2.00000
     10      -4.1355      2.00000
     11      -4.0812      2.00000
     12      -1.2549      2.00000
     13       1.6941      2.00000
     14       4.8669      2.00000
     15       6.2839      2.00000
     16       7.8483      2.00000
     17       8.6220      2.00000
     18       9.0103      2.00000
     19      11.9347      0.00000
     20      14.1237      0.00000
     21      18.0614      0.00000
     22      22.4440      0.00000
     23      22.5586      0.00000
     24      23.8225      0.00000
     25      25.0048      0.00000
     26      25.2104      0.00000
     27      25.3401      0.00000
     28      25.6024      0.00000
     29      27.1098      0.00000
     30      27.6744      0.00000
     31      29.8036      0.00000
     32      33.4210      0.00000

 k-point    58 :       0.1250   -0.1250    0.0000
  band No.  band energies     occupation 
      1      -8.6452      2.00000
      2      -6.6926      2.00000
      3      -4.6687      2.00000
      4      -4.5000      2.00000
      5      -4.4311      2.00000
      6      -4.4177      2.00000
      7      -4.4176      2.00000
      8      -4.3012      2.00000
      9      -4.2941      2.00000
     10      -4.2157      2.00000
     11      -4.0685      2.00000
     12      -1.3004      2.00000
     13       1.9777      2.00000
     14       5.1393      2.00000
     15       5.1466      2.00000
     16       7.6597      2.00000
     17       8.4255      2.00000
     18       8.4261      2.00000
     19      13.0187      0.00000
     20      14.8582      0.00000
     21      18.5611      0.00000
     22      21.8731      0.00000
     23      22.1648      0.00000
     24      22.6230      0.00000
     25      23.4669      0.00000
     26      24.0691      0.00000
     27      24.0697      0.00000
     28      26.6364      0.00000
     29      29.9215      0.00000
     30      29.9224      0.00000
     31      30.2890      0.00000
     32      32.8856      0.00000

 k-point    59 :       0.2500   -0.1250    0.0000
  band No.  band energies     occupation 
      1      -8.0326      2.00000
      2      -6.4911      2.00000
      3      -4.5980      2.00000
      4      -4.5406      2.00000
      5      -4.5178      2.00000
      6      -4.4151      2.00000
      7      -4.3862      2.00000
      8      -4.3627      2.00000
      9      -4.3574      2.00000
     10      -4.2512      2.00000
     11      -4.0882      2.00000
     12      -1.5970      2.00000
     13       2.7719      2.00000
     14       3.4422      2.00000
     15       5.9158      2.00000
     16       6.1089      2.00000
     17       7.7900      2.00000
     18       8.5447      2.00000
     19      14.6337      0.00000
     20      15.9685      0.00000
     21      19.4329      0.00000
     22      20.0282      0.00000
     23      20.3554      0.00000
     24      21.4304      0.00000
     25      22.0190      0.00000
     26      23.5630      0.00000
     27      24.4878      0.00000
     28      27.6183      0.00000
     29      30.9343      0.00000
     30      31.1532      0.00000
     31      31.9148      0.00000
     32      34.7759      0.00000

 k-point    60 :       0.3750   -0.1250    0.0000
  band No.  band energies     occupation 
      1      -7.1855      2.00000
      2      -6.3349      2.00000
      3      -4.5835      2.00000
      4      -4.5700      2.00000
      5      -4.5531      2.00000
      6      -4.4852      2.00000
      7      -4.4491      2.00000
      8      -4.4296      2.00000
      9      -4.2895      2.00000
     10      -4.1394      2.00000
     11      -4.0552      2.00000
     12      -2.4530      2.00000
     13       2.7327      2.00000
     14       3.9455      2.00000
     15       4.4346      2.00000
     16       6.7005      2.00000
     17       7.0099      2.00000
     18       8.6419      2.00000
     19      15.8076      0.00000
     20      16.3648      0.00000
     21      18.6526      0.00000
     22      18.7886      0.00000
     23      19.6285      0.00000
     24      20.5175      0.00000
     25      22.0590      0.00000
     26      22.6462      0.00000
     27      25.6760      0.00000
     28      29.4398      0.00000
     29      29.6472      0.00000
     30      32.3623      0.00000
     31      32.7618      0.00000
     32      36.6761      0.00000

 k-point    61 :       0.5000   -0.1250    0.0000
  band No.  band energies     occupation 
      1      -6.5046      2.00000
      2      -6.5046      2.00000
      3      -4.5733      2.00000
      4      -4.5733      2.00000
      5      -4.5581      2.00000
      6      -4.5581      2.00000
      7      -4.4406      2.00000
      8      -4.4406      2.00000
      9      -4.2105      2.00000
     10      -4.2105      2.00000
     11      -3.4975      2.00000
     12      -3.4975      2.00000
     13       3.1997      2.00000
     14       3.1997      2.00000
     15       5.3296      2.00000
     16       5.3296      2.00000
     17       8.0859      2.00000
     18       8.0859      2.00000
     19      16.2960      0.00000
     20      16.2960      0.00000
     21      18.3007      0.00000
     22      18.3007      0.00000
     23      19.7901      0.00000
     24      19.7901      0.00000
     25      22.1636      0.00000
     26      22.1636      0.00000
     27      27.3493      0.00000
     28      27.3493      0.00000
     29      32.6656      0.00000
     30      32.6656      0.00000
     31      34.3046      0.00000
     32      34.3046      0.00000

 k-point    62 :      -0.3750   -0.1250    0.0000
  band No.  band energies     occupation 
      1      -7.1855      2.00000
      2      -6.3349      2.00000
      3      -4.5835      2.00000
      4      -4.5700      2.00000
      5      -4.5531      2.00000
      6      -4.4852      2.00000
      7      -4.4491      2.00000
      8      -4.4296      2.00000
      9      -4.2895      2.00000
     10      -4.1394      2.00000
     11      -4.0552      2.00000
     12      -2.4530      2.00000
     13       2.7327      2.00000
     14       3.9455      2.00000
     15       4.4346      2.00000
     16       6.7005      2.00000
     17       7.0099      2.00000
     18       8.6419      2.00000
     19      15.8076      0.00000
     20      16.3648      0.00000
     21      18.6526      0.00000
     22      18.7886      0.00000
     23      19.6285      0.00000
     24      20.5175      0.00000
     25      22.0590      0.00000
     26      22.6462      0.00000
     27      25.6760      0.00000
     28      29.4398      0.00000
     29      29.6472      0.00000
     30      32.3623      0.00000
     31      32.7618      0.00000
     32      36.6761      0.00000

 k-point    63 :      -0.2500   -0.1250    0.0000
  band No.  band energies     occupation 
      1      -8.0326      2.00000
      2      -6.4911      2.00000
      3      -4.5980      2.00000
      4      -4.5406      2.00000
      5      -4.5178      2.00000
      6      -4.4151      2.00000
      7      -4.3862      2.00000
      8      -4.3627      2.00000
      9      -4.3574      2.00000
     10      -4.2512      2.00000
     11      -4.0882      2.00000
     12      -1.5970      2.00000
     13       2.7719      2.00000
     14       3.4422      2.00000
     15       5.9158      2.00000
     16       6.1089      2.00000
     17       7.7900      2.00000
     18       8.5447      2.00000
     19      14.6337      0.00000
     20      15.9685      0.00000
     21      19.4329      0.00000
     22      20.0282      0.00000
     23      20.3554      0.00000
     24      21.4304      0.00000
     25      22.0190      0.00000
     26      23.5630      0.00000
     27      24.4878      0.00000
     28      27.6183      0.00000
     29      30.9343      0.00000
     30      31.1532      0.00000
     31      31.9148      0.00000
     32      34.7759      0.00000

 k-point    64 :      -0.1250   -0.1250    0.0000
  band No.  band energies     occupation 
      1      -8.6452      2.00000
      2      -6.6926      2.00000
      3      -4.6687      2.00000
      4      -4.5000      2.00000
      5      -4.4311      2.00000
      6      -4.4177      2.00000
      7      -4.4176      2.00000
      8      -4.3012      2.00000
      9      -4.2941      2.00000
     10      -4.2157      2.00000
     11      -4.0685      2.00000
     12      -1.3004      2.00000
     13       1.9777      2.00000
     14       5.1393      2.00000
     15       5.1466      2.00000
     16       7.6597      2.00000
     17       8.4255      2.00000
     18       8.4261      2.00000
     19      13.0187      0.00000
     20      14.8582      0.00000
     21      18.5611      0.00000
     22      21.8731      0.00000
     23      22.1648      0.00000
     24      22.6230      0.00000
     25      23.4669      0.00000
     26      24.0691      0.00000
     27      24.0697      0.00000
     28      26.6364      0.00000
     29      29.9215      0.00000
     30      29.9224      0.00000
     31      30.2890      0.00000
     32      32.8856      0.00000

 k-point    65 :       0.0000    0.0000    0.1667
  band No.  band energies     occupation 
      1      -8.8887      2.00000
      2      -6.8920      2.00000
      3      -4.7111      2.00000
      4      -4.4788      2.00000
      5      -4.4417      2.00000
      6      -4.4417      2.00000
      7      -4.3774      2.00000
      8      -4.3133      2.00000
      9      -4.1811      2.00000
     10      -4.1031      2.00000
     11      -4.1031      2.00000
     12      -2.2931      2.00000
     13       2.6303      2.00000
     14       6.1764      2.00000
     15       6.1764      2.00000
     16       8.2253      2.00000
     17       8.6569      2.00000
     18       8.6569      2.00000
     19      11.4306      0.00000
     20      14.0872      0.00000
     21      17.6958      0.00000
     22      22.2510      0.00000
     23      22.9297      0.00000
     24      24.3642      0.00000
     25      24.3642      0.00000
     26      24.5394      0.00000
     27      25.3880      0.00000
     28      25.3880      0.00000
     29      28.5906      0.00000
     30      28.6198      0.00000
     31      28.6198      0.00000
     32      32.6306      0.00000

 k-point    66 :       0.1250   -0.0000    0.1667
  band No.  band energies     occupation 
      1      -8.6614      2.00000
      2      -6.7748      2.00000
      3      -4.6861      2.00000
      4      -4.4883      2.00000
      5      -4.4504      2.00000
      6      -4.4486      2.00000
      7      -4.3612      2.00000
      8      -4.3353      2.00000
      9      -4.2586      2.00000
     10      -4.1748      2.00000
     11      -4.0964      2.00000
     12      -2.2607      2.00000
     13       2.6048      2.00000
     14       5.3177      2.00000
     15       6.4658      2.00000
     16       6.9848      2.00000
     17       8.8308      2.00000
     18       8.9782      2.00000
     19      12.3643      0.00000
     20      14.6068      0.00000
     21      18.2205      0.00000
     22      21.5336      0.00000
     23      21.8854      0.00000
     24      23.7862      0.00000
     25      23.8368      0.00000
     26      24.6758      0.00000
     27      25.5412      0.00000
     28      26.3532      0.00000
     29      26.7270      0.00000
     30      27.4598      0.00000
     31      31.3610      0.00000
     32      35.0866      0.00000

 k-point    67 :       0.2500   -0.0000    0.1667
  band No.  band energies     occupation 
      1      -8.0092      2.00000
      2      -6.4723      2.00000
      3      -4.6416      2.00000
      4      -4.5299      2.00000
      5      -4.5136      2.00000
      6      -4.5001      2.00000
      7      -4.4121      2.00000
      8      -4.3308      2.00000
      9      -4.3184      2.00000
     10      -4.2757      2.00000
     11      -4.1144      2.00000
     12      -2.3473      2.00000
     13       2.0706      2.00000
     14       4.7512      2.00000
     15       5.1355      2.00000
     16       7.2492      2.00000
     17       8.6727      2.00000
     18       9.2288      2.00000
     19      13.8580      0.00000
     20      15.4943      0.00000
     21      18.9437      0.00000
     22      20.2224      0.00000
     23      21.4175      0.00000
     24      22.0683      0.00000
     25      22.1644      0.00000
     26      23.0536      0.00000
     27      26.3542      0.00000
     28      26.6696      0.00000
     29      27.2590      0.00000
     30      28.9103      0.00000
     31      34.4422      0.00000
     32      35.0032      0.00000

 k-point    68 :       0.3750   -0.0000    0.1667
  band No.  band energies     occupation 
      1      -7.0620      2.00000
      2      -6.1563      2.00000
      3      -4.6619      2.00000
      4      -4.6370      2.00000
      5      -4.5993      2.00000
      6      -4.5545      2.00000
      7      -4.5225      2.00000
      8      -4.4148      2.00000
      9      -4.2801      2.00000
     10      -4.1578      2.00000
     11      -4.1165      2.00000
     12      -2.9493      2.00000
     13       1.5836      2.00000
     14       3.3945      2.00000
     15       5.4246      2.00000
     16       7.7814      2.00000
     17       8.2839      2.00000
     18       9.4854      2.00000
     19      15.2882      0.00000
     20      16.1827      0.00000
     21      18.4114      0.00000
     22      19.2364      0.00000
     23      20.6191      0.00000
     24      20.6976      0.00000
     25      21.3191      0.00000
     26      21.3938      0.00000
     27      28.0233      0.00000
     28      28.1915      0.00000
     29      28.7356      0.00000
     30      31.6983      0.00000
     31      31.8899      0.00000
     32      32.9682      0.00000

 k-point    69 :       0.5000   -0.0000    0.1667
  band No.  band energies     occupation 
      1      -6.2456      2.00000
      2      -6.2456      2.00000
      3      -4.7165      2.00000
      4      -4.7165      2.00000
      5      -4.6233      2.00000
      6      -4.6233      2.00000
      7      -4.4780      2.00000
      8      -4.4780      2.00000
      9      -4.2168      2.00000
     10      -4.2168      2.00000
     11      -3.7527      2.00000
     12      -3.7527      2.00000
     13       2.1063      2.00000
     14       2.1063      2.00000
     15       6.5760      2.00000
     16       6.5760      2.00000
     17       9.1710      2.00000
     18       9.1710      2.00000
     19      16.4705      0.00000
     20      16.4705      0.00000
     21      17.9159      0.00000
     22      17.9159      0.00000
     23      20.4259      0.00000
     24      20.4259      0.00000
     25      20.8793      0.00000
     26      20.8793      0.00000
     27      29.7735      0.00000
     28      29.7735      0.00000
     29      29.9191      0.00000
     30      29.9191      0.00000
     31      32.3805      0.00000
     32      32.3805      0.00000

 k-point    70 :      -0.3750    0.0000    0.1667
  band No.  band energies     occupation 
      1      -7.0620      2.00000
      2      -6.1563      2.00000
      3      -4.6619      2.00000
      4      -4.6370      2.00000
      5      -4.5993      2.00000
      6      -4.5545      2.00000
      7      -4.5225      2.00000
      8      -4.4148      2.00000
      9      -4.2801      2.00000
     10      -4.1578      2.00000
     11      -4.1165      2.00000
     12      -2.9493      2.00000
     13       1.5836      2.00000
     14       3.3945      2.00000
     15       5.4246      2.00000
     16       7.7814      2.00000
     17       8.2839      2.00000
     18       9.4854      2.00000
     19      15.2882      0.00000
     20      16.1827      0.00000
     21      18.4114      0.00000
     22      19.2364      0.00000
     23      20.6191      0.00000
     24      20.6976      0.00000
     25      21.3191      0.00000
     26      21.3938      0.00000
     27      28.0233      0.00000
     28      28.1915      0.00000
     29      28.7356      0.00000
     30      31.6983      0.00000
     31      31.8899      0.00000
     32      32.9682      0.00000

 k-point    71 :      -0.2500    0.0000    0.1667
  band No.  band energies     occupation 
      1      -8.0092      2.00000
      2      -6.4723      2.00000
      3      -4.6416      2.00000
      4      -4.5299      2.00000
      5      -4.5136      2.00000
      6      -4.5001      2.00000
      7      -4.4121      2.00000
      8      -4.3308      2.00000
      9      -4.3184      2.00000
     10      -4.2757      2.00000
     11      -4.1144      2.00000
     12      -2.3473      2.00000
     13       2.0706      2.00000
     14       4.7512      2.00000
     15       5.1355      2.00000
     16       7.2492      2.00000
     17       8.6727      2.00000
     18       9.2288      2.00000
     19      13.8580      0.00000
     20      15.4943      0.00000
     21      18.9437      0.00000
     22      20.2224      0.00000
     23      21.4175      0.00000
     24      22.0683      0.00000
     25      22.1644      0.00000
     26      23.0536      0.00000
     27      26.3542      0.00000
     28      26.6696      0.00000
     29      27.2590      0.00000
     30      28.9103      0.00000
     31      34.4422      0.00000
     32      35.0032      0.00000

 k-point    72 :      -0.1250    0.0000    0.1667
  band No.  band energies     occupation 
      1      -8.6614      2.00000
      2      -6.7748      2.00000
      3      -4.6861      2.00000
      4      -4.4883      2.00000
      5      -4.4504      2.00000
      6      -4.4486      2.00000
      7      -4.3612      2.00000
      8      -4.3353      2.00000
      9      -4.2586      2.00000
     10      -4.1748      2.00000
     11      -4.0964      2.00000
     12      -2.2607      2.00000
     13       2.6048      2.00000
     14       5.3177      2.00000
     15       6.4658      2.00000
     16       6.9848      2.00000
     17       8.8308      2.00000
     18       8.9782      2.00000
     19      12.3643      0.00000
     20      14.6068      0.00000
     21      18.2205      0.00000
     22      21.5336      0.00000
     23      21.8854      0.00000
     24      23.7862      0.00000
     25      23.8368      0.00000
     26      24.6758      0.00000
     27      25.5412      0.00000
     28      26.3532      0.00000
     29      26.7270      0.00000
     30      27.4598      0.00000
     31      31.3610      0.00000
     32      35.0866      0.00000

 k-point    73 :      -0.0000    0.1250    0.1667
  band No.  band energies     occupation 
      1      -8.6614      2.00000
      2      -6.7748      2.00000
      3      -4.6861      2.00000
      4      -4.4883      2.00000
      5      -4.4504      2.00000
      6      -4.4486      2.00000
      7      -4.3612      2.00000
      8      -4.3353      2.00000
      9      -4.2586      2.00000
     10      -4.1748      2.00000
     11      -4.0964      2.00000
     12      -2.2607      2.00000
     13       2.6048      2.00000
     14       5.3177      2.00000
     15       6.4658      2.00000
     16       6.9848      2.00000
     17       8.8308      2.00000
     18       8.9782      2.00000
     19      12.3643      0.00000
     20      14.6068      0.00000
     21      18.2205      0.00000
     22      21.5336      0.00000
     23      21.8854      0.00000
     24      23.7862      0.00000
     25      23.8368      0.00000
     26      24.6758      0.00000
     27      25.5412      0.00000
     28      26.3532      0.00000
     29      26.7270      0.00000
     30      27.4598      0.00000
     31      31.3610      0.00000
     32      35.0866      0.00000

 k-point    74 :       0.1250    0.1250    0.1667
  band No.  band energies     occupation 
      1      -8.4459      2.00000
      2      -6.6783      2.00000
      3      -4.6551      2.00000
      4      -4.5025      2.00000
      5      -4.4711      2.00000
      6      -4.4243      2.00000
      7      -4.4104      2.00000
      8      -4.3401      2.00000
      9      -4.2866      2.00000
     10      -4.2168      2.00000
     11      -4.1030      2.00000
     12      -2.2080      2.00000
     13       2.6691      2.00000
     14       5.3423      2.00000
     15       5.7445      2.00000
     16       6.6614      2.00000
     17       8.1823      2.00000
     18       9.1343      2.00000
     19      13.3849      0.00000
     20      15.1970      0.00000
     21      18.6966      0.00000
     22      21.1536      0.00000
     23      21.3032      0.00000
     24      22.0218      0.00000
     25      23.6288      0.00000
     26      23.6763      0.00000
     27      25.2677      0.00000
     28      26.4021      0.00000
     29      28.2322      0.00000
     30      28.9964      0.00000
     31      32.8742      0.00000
     32      34.4438      0.00000

 k-point    75 :       0.2500    0.1250    0.1667
  band No.  band energies     occupation 
      1      -7.8388      2.00000
      2      -6.4431      2.00000
      3      -4.6005      2.00000
      4      -4.5632      2.00000
      5      -4.5287      2.00000
      6      -4.4624      2.00000
      7      -4.4456      2.00000
      8      -4.3544      2.00000
      9      -4.3143      2.00000
     10      -4.2421      2.00000
     11      -4.1099      2.00000
     12      -2.2115      2.00000
     13       2.3140      2.00000
     14       4.6739      2.00000
     15       5.2111      2.00000
     16       6.3333      2.00000
     17       8.1687      2.00000
     18       8.7605      2.00000
     19      14.9405      0.00000
     20      16.0575      0.00000
     21      19.0785      0.00000
     22      19.5677      0.00000
     23      20.5961      0.00000
     24      20.7443      0.00000
     25      22.4836      0.00000
     26      22.9157      0.00000
     27      25.3338      0.00000
     28      27.5579      0.00000
     29      29.5515      0.00000
     30      30.8050      0.00000
     31      32.0719      0.00000
     32      35.7260      0.00000

 k-point    76 :       0.3750    0.1250    0.1667
  band No.  band energies     occupation 
      1      -7.0062      2.00000
      2      -6.2404      2.00000
      3      -4.6394      2.00000
      4      -4.6307      2.00000
      5      -4.5228      2.00000
      6      -4.4939      2.00000
      7      -4.4886      2.00000
      8      -4.4444      2.00000
      9      -4.2111      2.00000
     10      -4.1368      2.00000
     11      -4.1001      2.00000
     12      -2.6963      2.00000
     13       1.7572      2.00000
     14       3.5241      2.00000
     15       5.3315      2.00000
     16       7.3116      2.00000
     17       7.6803      2.00000
     18       8.5422      2.00000
     19      16.0486      0.00000
     20      16.2647      0.00000
     21      17.8912      0.00000
     22      18.1206      0.00000
     23      20.4160      0.00000
     24      21.1306      0.00000
     25      21.7447      0.00000
     26      22.1394      0.00000
     27      26.0973      0.00000
     28      29.5024      0.00000
     29      29.8845      0.00000
     30      30.9896      0.00000
     31      32.9440      0.00000
     32      35.6606      0.00000

 k-point    77 :       0.5000    0.1250    0.1667
  band No.  band energies     occupation 
      1      -6.3607      2.00000
      2      -6.3607      2.00000
      3      -4.6574      2.00000
      4      -4.6574      2.00000
      5      -4.5299      2.00000
      6      -4.5299      2.00000
      7      -4.4592      2.00000
      8      -4.4592      2.00000
      9      -4.1710      2.00000
     10      -4.1710      2.00000
     11      -3.5733      2.00000
     12      -3.5733      2.00000
     13       2.2373      2.00000
     14       2.2373      2.00000
     15       6.4928      2.00000
     16       6.4928      2.00000
     17       8.2005      2.00000
     18       8.2005      2.00000
     19      16.2687      0.00000
     20      16.2687      0.00000
     21      17.5673      0.00000
     22      17.5673      0.00000
     23      20.7119      0.00000
     24      20.7119      0.00000
     25      21.6809      0.00000
     26      21.6809      0.00000
     27      27.5977      0.00000
     28      27.5977      0.00000
     29      32.1998      0.00000
     30      32.1998      0.00000
     31      33.9489      0.00000
     32      33.9489      0.00000

 k-point    78 :      -0.3750    0.1250    0.1667
  band No.  band energies     occupation 
      1      -7.0062      2.00000
      2      -6.2404      2.00000
      3      -4.6394      2.00000
      4      -4.6307      2.00000
      5      -4.5228      2.00000
      6      -4.4939      2.00000
      7      -4.4886      2.00000
      8      -4.4444      2.00000
      9      -4.2111      2.00000
     10      -4.1368      2.00000
     11      -4.1001      2.00000
     12      -2.6963      2.00000
     13       1.7572      2.00000
     14       3.5241      2.00000
     15       5.3315      2.00000
     16       7.3116      2.00000
     17       7.6803      2.00000
     18       8.5422      2.00000
     19      16.0486      0.00000
     20      16.2647      0.00000
     21      17.8912      0.00000
     22      18.1206      0.00000
     23      20.4160      0.00000
     24      21.1306      0.00000
     25      21.7447      0.00000
     26      22.1394      0.00000
     27      26.0973      0.00000
     28      29.5024      0.00000
     29      29.8845      0.00000
     30      30.9896      0.00000
     31      32.9440      0.00000
     32      35.6606      0.00000

 k-point    79 :      -0.2500    0.1250    0.1667
  band No.  band energies     occupation 
      1      -7.8388      2.00000
      2      -6.4431      2.00000
      3      -4.6005      2.00000
      4      -4.5632      2.00000
      5      -4.5287      2.00000
      6      -4.4624      2.00000
      7      -4.4456      2.00000
      8      -4.3544      2.00000
      9      -4.3143      2.00000
     10      -4.2421      2.00000
     11      -4.1099      2.00000
     12      -2.2115      2.00000
     13       2.3140      2.00000
     14       4.6739      2.00000
     15       5.2111      2.00000
     16       6.3333      2.00000
     17       8.1687      2.00000
     18       8.7605      2.00000
     19      14.9405      0.00000
     20      16.0575      0.00000
     21      19.0785      0.00000
     22      19.5677      0.00000
     23      20.5961      0.00000
     24      20.7443      0.00000
     25      22.4836      0.00000
     26      22.9157      0.00000
     27      25.3338      0.00000
     28      27.5579      0.00000
     29      29.5515      0.00000
     30      30.8050      0.00000
     31      32.0719      0.00000
     32      35.7260      0.00000

 k-point    80 :      -0.1250    0.1250    0.1667
  band No.  band energies     occupation 
      1      -8.4459      2.00000
      2      -6.6783      2.00000
      3      -4.6551      2.00000
      4      -4.5025      2.00000
      5      -4.4711      2.00000
      6      -4.4243      2.00000
      7      -4.4104      2.00000
      8      -4.3401      2.00000
      9      -4.2866      2.00000
     10      -4.2168      2.00000
     11      -4.1030      2.00000
     12      -2.2080      2.00000
     13       2.6691      2.00000
     14       5.3423      2.00000
     15       5.7445      2.00000
     16       6.6614      2.00000
     17       8.1823      2.00000
     18       9.1343      2.00000
     19      13.3849      0.00000
     20      15.1970      0.00000
     21      18.6966      0.00000
     22      21.1536      0.00000
     23      21.3032      0.00000
     24      22.0218      0.00000
     25      23.6288      0.00000
     26      23.6763      0.00000
     27      25.2677      0.00000
     28      26.4021      0.00000
     29      28.2322      0.00000
     30      28.9964      0.00000
     31      32.8742      0.00000
     32      34.4438      0.00000

 k-point    81 :      -0.0000    0.2500    0.1667
  band No.  band energies     occupation 
      1      -8.0092      2.00000
      2      -6.4723      2.00000
      3      -4.6416      2.00000
      4      -4.5299      2.00000
      5      -4.5136      2.00000
      6      -4.5001      2.00000
      7      -4.4121      2.00000
      8      -4.3308      2.00000
      9      -4.3184      2.00000
     10      -4.2757      2.00000
     11      -4.1144      2.00000
     12      -2.3473      2.00000
     13       2.0706      2.00000
     14       4.7512      2.00000
     15       5.1355      2.00000
     16       7.2492      2.00000
     17       8.6727      2.00000
     18       9.2288      2.00000
     19      13.8580      0.00000
     20      15.4943      0.00000
     21      18.9437      0.00000
     22      20.2224      0.00000
     23      21.4175      0.00000
     24      22.0683      0.00000
     25      22.1644      0.00000
     26      23.0536      0.00000
     27      26.3542      0.00000
     28      26.6696      0.00000
     29      27.2590      0.00000
     30      28.9103      0.00000
     31      34.4422      0.00000
     32      35.0032      0.00000

 k-point    82 :       0.1250    0.2500    0.1667
  band No.  band energies     occupation 
      1      -7.8388      2.00000
      2      -6.4431      2.00000
      3      -4.6005      2.00000
      4      -4.5632      2.00000
      5      -4.5287      2.00000
      6      -4.4624      2.00000
      7      -4.4456      2.00000
      8      -4.3544      2.00000
      9      -4.3143      2.00000
     10      -4.2421      2.00000
     11      -4.1099      2.00000
     12      -2.2115      2.00000
     13       2.3140      2.00000
     14       4.6739      2.00000
     15       5.2111      2.00000
     16       6.3333      2.00000
     17       8.1687      2.00000
     18       8.7605      2.00000
     19      14.9405      0.00000
     20      16.0575      0.00000
     21      19.0785      0.00000
     22      19.5677      0.00000
     23      20.5961      0.00000
     24      20.7443      0.00000
     25      22.4836      0.00000
     26      22.9157      0.00000
     27      25.3338      0.00000
     28      27.5579      0.00000
     29      29.5515      0.00000
     30      30.8050      0.00000
     31      32.0719      0.00000
     32      35.7260      0.00000

 k-point    83 :       0.2500    0.2500    0.1667
  band No.  band energies     occupation 
      1      -7.3971      2.00000
      2      -6.4001      2.00000
      3      -4.5835      2.00000
      4      -4.5467      2.00000
      5      -4.4957      2.00000
      6      -4.4832      2.00000
      7      -4.4337      2.00000
      8      -4.3543      2.00000
      9      -4.2929      2.00000
     10      -4.1416      2.00000
     11      -4.1028      2.00000
     12      -1.9560      2.00000
     13       2.8712      2.00000
     14       3.6716      2.00000
     15       4.9968      2.00000
     16       5.9979      2.00000
     17       7.0737      2.00000
     18       8.1583      2.00000
     19      15.7301      0.00000
     20      15.7478      0.00000
     21      19.2016      0.00000
     22      19.2356      0.00000
     23      19.5047      0.00000
     24      20.5732      0.00000
     25      21.8763      0.00000
     26      23.4362      0.00000
     27      24.8395      0.00000
     28      29.5240      0.00000
     29      29.5493      0.00000
     30      33.0181      0.00000
     31      33.2128      0.00000
     32      36.2638      0.00000

 k-point    84 :       0.3750    0.2500    0.1667
  band No.  band energies     occupation 
      1      -6.9001      2.00000
      2      -6.4252      2.00000
      3      -4.6274      2.00000
      4      -4.6067      2.00000
      5      -4.4502      2.00000
      6      -4.3788      2.00000
      7      -4.3621      2.00000
      8      -4.3478      2.00000
      9      -4.1507      2.00000
     10      -4.1096      2.00000
     11      -3.8097      2.00000
     12      -2.0645      2.00000
     13       2.2323      2.00000
     14       3.7573      2.00000
     15       4.3092      2.00000
     16       6.5563      2.00000
     17       6.8574      2.00000
     18       7.2666      2.00000
     19      14.4240      0.00000
     20      14.7679      0.00000
     21      18.7590      0.00000
     22      19.1145      0.00000
     23      20.2629      0.00000
     24      21.0930      0.00000
     25      22.3845      0.00000
     26      23.5107      0.00000
     27      25.3388      0.00000
     28      27.5036      0.00000
     29      32.0019      0.00000
     30      34.8226      0.00000
     31      35.0784      0.00000
     32      37.8616      0.00000

 k-point    85 :       0.5000    0.2500    0.1667
  band No.  band energies     occupation 
      1      -6.5719      2.00000
      2      -6.5719      2.00000
      3      -4.6407      2.00000
      4      -4.6407      2.00000
      5      -4.4027      2.00000
      6      -4.4027      2.00000
      7      -4.3149      2.00000
      8      -4.3149      2.00000
      9      -4.1160      2.00000
     10      -4.1160      2.00000
     11      -2.9163      2.00000
     12      -2.9163      2.00000
     13       2.5327      2.00000
     14       2.5327      2.00000
     15       5.6690      2.00000
     16       5.6690      2.00000
     17       7.0575      2.00000
     18       7.0575      2.00000
     19      14.0065      0.00000
     20      14.0065      0.00000
     21      18.7730      0.00000
     22      18.7730      0.00000
     23      20.9569      0.00000
     24      20.9569      0.00000
     25      23.1955      0.00000
     26      23.1955      0.00000
     27      26.1547      0.00000
     28      26.1547      0.00000
     29      34.9871      0.00000
     30      34.9871      0.00000
     31      36.5227      0.00000
     32      36.5227      0.00000

 k-point    86 :      -0.3750    0.2500    0.1667
  band No.  band energies     occupation 
      1      -6.9001      2.00000
      2      -6.4252      2.00000
      3      -4.6274      2.00000
      4      -4.6067      2.00000
      5      -4.4502      2.00000
      6      -4.3788      2.00000
      7      -4.3621      2.00000
      8      -4.3478      2.00000
      9      -4.1507      2.00000
     10      -4.1096      2.00000
     11      -3.8097      2.00000
     12      -2.0645      2.00000
     13       2.2323      2.00000
     14       3.7573      2.00000
     15       4.3092      2.00000
     16       6.5563      2.00000
     17       6.8574      2.00000
     18       7.2666      2.00000
     19      14.4240      0.00000
     20      14.7679      0.00000
     21      18.7590      0.00000
     22      19.1145      0.00000
     23      20.2629      0.00000
     24      21.0930      0.00000
     25      22.3845      0.00000
     26      23.5107      0.00000
     27      25.3388      0.00000
     28      27.5036      0.00000
     29      32.0019      0.00000
     30      34.8226      0.00000
     31      35.0784      0.00000
     32      37.8616      0.00000

 k-point    87 :      -0.2500    0.2500    0.1667
  band No.  band energies     occupation 
      1      -7.3971      2.00000
      2      -6.4001      2.00000
      3      -4.5835      2.00000
      4      -4.5467      2.00000
      5      -4.4957      2.00000
      6      -4.4832      2.00000
      7      -4.4337      2.00000
      8      -4.3543      2.00000
      9      -4.2929      2.00000
     10      -4.1416      2.00000
     11      -4.1028      2.00000
     12      -1.9560      2.00000
     13       2.8712      2.00000
     14       3.6716      2.00000
     15       4.9968      2.00000
     16       5.9979      2.00000
     17       7.0737      2.00000
     18       8.1583      2.00000
     19      15.7301      0.00000
     20      15.7478      0.00000
     21      19.2016      0.00000
     22      19.2356      0.00000
     23      19.5047      0.00000
     24      20.5732      0.00000
     25      21.8763      0.00000
     26      23.4362      0.00000
     27      24.8395      0.00000
     28      29.5240      0.00000
     29      29.5493      0.00000
     30      33.0181      0.00000
     31      33.2128      0.00000
     32      36.2638      0.00000

 k-point    88 :      -0.1250    0.2500    0.1667
  band No.  band energies     occupation 
      1      -7.8388      2.00000
      2      -6.4431      2.00000
      3      -4.6005      2.00000
      4      -4.5632      2.00000
      5      -4.5287      2.00000
      6      -4.4624      2.00000
      7      -4.4456      2.00000
      8      -4.3544      2.00000
      9      -4.3143      2.00000
     10      -4.2421      2.00000
     11      -4.1099      2.00000
     12      -2.2115      2.00000
     13       2.3140      2.00000
     14       4.6739      2.00000
     15       5.2111      2.00000
     16       6.3333      2.00000
     17       8.1687      2.00000
     18       8.7605      2.00000
     19      14.9405      0.00000
     20      16.0575      0.00000
     21      19.0785      0.00000
     22      19.5677      0.00000
     23      20.5961      0.00000
     24      20.7443      0.00000
     25      22.4836      0.00000
     26      22.9157      0.00000
     27      25.3338      0.00000
     28      27.5579      0.00000
     29      29.5515      0.00000
     30      30.8050      0.00000
     31      32.0719      0.00000
     32      35.7260      0.00000

 k-point    89 :      -0.0000    0.3750    0.1667
  band No.  band energies     occupation 
      1      -7.0620      2.00000
      2      -6.1563      2.00000
      3      -4.6619      2.00000
      4      -4.6370      2.00000
      5      -4.5993      2.00000
      6      -4.5545      2.00000
      7      -4.5225      2.00000
      8      -4.4148      2.00000
      9      -4.2801      2.00000
     10      -4.1578      2.00000
     11      -4.1165      2.00000
     12      -2.9493      2.00000
     13       1.5836      2.00000
     14       3.3945      2.00000
     15       5.4246      2.00000
     16       7.7814      2.00000
     17       8.2839      2.00000
     18       9.4854      2.00000
     19      15.2882      0.00000
     20      16.1827      0.00000
     21      18.4114      0.00000
     22      19.2364      0.00000
     23      20.6191      0.00000
     24      20.6976      0.00000
     25      21.3191      0.00000
     26      21.3938      0.00000
     27      28.0233      0.00000
     28      28.1915      0.00000
     29      28.7356      0.00000
     30      31.6983      0.00000
     31      31.8899      0.00000
     32      32.9682      0.00000

 k-point    90 :       0.1250    0.3750    0.1667
  band No.  band energies     occupation 
      1      -7.0062      2.00000
      2      -6.2404      2.00000
      3      -4.6394      2.00000
      4      -4.6307      2.00000
      5      -4.5228      2.00000
      6      -4.4939      2.00000
      7      -4.4886      2.00000
      8      -4.4444      2.00000
      9      -4.2111      2.00000
     10      -4.1368      2.00000
     11      -4.1001      2.00000
     12      -2.6963      2.00000
     13       1.7572      2.00000
     14       3.5241      2.00000
     15       5.3315      2.00000
     16       7.3116      2.00000
     17       7.6803      2.00000
     18       8.5422      2.00000
     19      16.0486      0.00000
     20      16.2647      0.00000
     21      17.8912      0.00000
     22      18.1206      0.00000
     23      20.4160      0.00000
     24      21.1306      0.00000
     25      21.7447      0.00000
     26      22.1394      0.00000
     27      26.0973      0.00000
     28      29.5024      0.00000
     29      29.8845      0.00000
     30      30.9896      0.00000
     31      32.9440      0.00000
     32      35.6606      0.00000

 k-point    91 :       0.2500    0.3750    0.1667
  band No.  band energies     occupation 
      1      -6.9001      2.00000
      2      -6.4252      2.00000
      3      -4.6274      2.00000
      4      -4.6067      2.00000
      5      -4.4502      2.00000
      6      -4.3788      2.00000
      7      -4.3621      2.00000
      8      -4.3478      2.00000
      9      -4.1507      2.00000
     10      -4.1096      2.00000
     11      -3.8097      2.00000
     12      -2.0645      2.00000
     13       2.2323      2.00000
     14       3.7573      2.00000
     15       4.3092      2.00000
     16       6.5563      2.00000
     17       6.8574      2.00000
     18       7.2666      2.00000
     19      14.4240      0.00000
     20      14.7679      0.00000
     21      18.7590      0.00000
     22      19.1145      0.00000
     23      20.2629      0.00000
     24      21.0930      0.00000
     25      22.3845      0.00000
     26      23.5107      0.00000
     27      25.3388      0.00000
     28      27.5036      0.00000
     29      32.0019      0.00000
     30      34.8226      0.00000
     31      35.0784      0.00000
     32      37.8616      0.00000

 k-point    92 :       0.3750    0.3750    0.1667
  band No.  band energies     occupation 
      1      -6.8161      2.00000
      2      -6.6054      2.00000
      3      -4.6674      2.00000
      4      -4.6576      2.00000
      5      -4.3328      2.00000
      6      -4.2951      2.00000
      7      -4.2429      2.00000
      8      -4.1762      2.00000
      9      -4.1421      2.00000
     10      -4.0983      2.00000
     11      -2.9886      2.00000
     12      -1.4915      2.00000
     13       2.2317      2.00000
     14       3.3346      2.00000
     15       3.7565      2.00000
     16       6.0133      2.00000
     17       6.3759      2.00000
     18       6.6137      2.00000
     19      12.9469      0.00000
     20      13.1466      0.00000
     21      18.3922      0.00000
     22      18.8732      0.00000
     23      21.2222      0.00000
     24      21.9757      0.00000
     25      23.7046      0.00000
     26      24.3184      0.00000
     27      25.5595      0.00000
     28      26.0735      0.00000
     29      34.4232      0.00000
     30      36.0996      0.00000
     31      38.2308      0.00000
     32      39.6368      0.00000

 k-point    93 :       0.5000    0.3750    0.1667
  band No.  band energies     occupation 
      1      -6.7328      2.00000
      2      -6.7328      2.00000
      3      -4.6834      2.00000
      4      -4.6834      2.00000
      5      -4.2726      2.00000
      6      -4.2726      2.00000
      7      -4.1813      2.00000
      8      -4.1813      2.00000
      9      -4.0920      2.00000
     10      -4.0920      2.00000
     11      -1.9045      2.00000
     12      -1.9045      2.00000
     13       2.3077      2.00000
     14       2.3077      2.00000
     15       4.8924      2.00000
     16       4.8924      2.00000
     17       6.4521      2.00000
     18       6.4521      2.00000
     19      12.4680      0.00000
     20      12.4680      0.00000
     21      18.3367      0.00000
     22      18.3367      0.00000
     23      22.0009      0.00000
     24      22.0009      0.00000
     25      24.5153      0.00000
     26      24.5153      0.00000
     27      25.6829      0.00000
     28      25.6829      0.00000
     29      36.4308      0.00000
     30      36.4308      0.00000
     31      39.0979      0.00000
     32      39.0979      0.00000

 k-point    94 :      -0.3750    0.3750    0.1667
  band No.  band energies     occupation 
      1      -6.8161      2.00000
      2      -6.6054      2.00000
      3      -4.6674      2.00000
      4      -4.6576      2.00000
      5      -4.3328      2.00000
      6      -4.2951      2.00000
      7      -4.2429      2.00000
      8      -4.1762      2.00000
      9      -4.1421      2.00000
     10      -4.0983      2.00000
     11      -2.9886      2.00000
     12      -1.4915      2.00000
     13       2.2317      2.00000
     14       3.3346      2.00000
     15       3.7565      2.00000
     16       6.0133      2.00000
     17       6.3759      2.00000
     18       6.6137      2.00000
     19      12.9469      0.00000
     20      13.1466      0.00000
     21      18.3922      0.00000
     22      18.8732      0.00000
     23      21.2222      0.00000
     24      21.9757      0.00000
     25      23.7046      0.00000
     26      24.3184      0.00000
     27      25.5595      0.00000
     28      26.0735      0.00000
     29      34.4232      0.00000
     30      36.0996      0.00000
     31      38.2308      0.00000
     32      39.6369      0.00000

 k-point    95 :      -0.2500    0.3750    0.1667
  band No.  band energies     occupation 
      1      -6.9001      2.00000
      2      -6.4252      2.00000
      3      -4.6274      2.00000
      4      -4.6067      2.00000
      5      -4.4502      2.00000
      6      -4.3788      2.00000
      7      -4.3621      2.00000
      8      -4.3478      2.00000
      9      -4.1507      2.00000
     10      -4.1096      2.00000
     11      -3.8097      2.00000
     12      -2.0645      2.00000
     13       2.2323      2.00000
     14       3.7573      2.00000
     15       4.3092      2.00000
     16       6.5563      2.00000
     17       6.8574      2.00000
     18       7.2666      2.00000
     19      14.4240      0.00000
     20      14.7679      0.00000
     21      18.7590      0.00000
     22      19.1145      0.00000
     23      20.2629      0.00000
     24      21.0930      0.00000
     25      22.3845      0.00000
     26      23.5107      0.00000
     27      25.3388      0.00000
     28      27.5036      0.00000
     29      32.0019      0.00000
     30      34.8226      0.00000
     31      35.0784      0.00000
     32      37.8616      0.00000

 k-point    96 :      -0.1250    0.3750    0.1667
  band No.  band energies     occupation 
      1      -7.0062      2.00000
      2      -6.2404      2.00000
      3      -4.6394      2.00000
      4      -4.6307      2.00000
      5      -4.5228      2.00000
      6      -4.4939      2.00000
      7      -4.4886      2.00000
      8      -4.4444      2.00000
      9      -4.2111      2.00000
     10      -4.1368      2.00000
     11      -4.1001      2.00000
     12      -2.6963      2.00000
     13       1.7572      2.00000
     14       3.5241      2.00000
     15       5.3315      2.00000
     16       7.3116      2.00000
     17       7.6803      2.00000
     18       8.5422      2.00000
     19      16.0486      0.00000
     20      16.2647      0.00000
     21      17.8912      0.00000
     22      18.1206      0.00000
     23      20.4160      0.00000
     24      21.1306      0.00000
     25      21.7447      0.00000
     26      22.1394      0.00000
     27      26.0973      0.00000
     28      29.5024      0.00000
     29      29.8845      0.00000
     30      30.9896      0.00000
     31      32.9440      0.00000
     32      35.6606      0.00000

 k-point    97 :      -0.0000    0.5000    0.1667
  band No.  band energies     occupation 
      1      -6.2456      2.00000
      2      -6.2456      2.00000
      3      -4.7165      2.00000
      4      -4.7165      2.00000
      5      -4.6233      2.00000
      6      -4.6233      2.00000
      7      -4.4780      2.00000
      8      -4.4780      2.00000
      9      -4.2168      2.00000
     10      -4.2168      2.00000
     11      -3.7527      2.00000
     12      -3.7527      2.00000
     13       2.1063      2.00000
     14       2.1063      2.00000
     15       6.5760      2.00000
     16       6.5760      2.00000
     17       9.1710      2.00000
     18       9.1710      2.00000
     19      16.4705      0.00000
     20      16.4705      0.00000
     21      17.9159      0.00000
     22      17.9159      0.00000
     23      20.4259      0.00000
     24      20.4259      0.00000
     25      20.8793      0.00000
     26      20.8793      0.00000
     27      29.7735      0.00000
     28      29.7735      0.00000
     29      29.9191      0.00000
     30      29.9191      0.00000
     31      32.3805      0.00000
     32      32.3805      0.00000

 k-point    98 :       0.1250    0.5000    0.1667
  band No.  band energies     occupation 
      1      -6.3607      2.00000
      2      -6.3607      2.00000
      3      -4.6574      2.00000
      4      -4.6574      2.00000
      5      -4.5299      2.00000
      6      -4.5299      2.00000
      7      -4.4592      2.00000
      8      -4.4592      2.00000
      9      -4.1710      2.00000
     10      -4.1710      2.00000
     11      -3.5733      2.00000
     12      -3.5733      2.00000
     13       2.2373      2.00000
     14       2.2373      2.00000
     15       6.4928      2.00000
     16       6.4928      2.00000
     17       8.2005      2.00000
     18       8.2005      2.00000
     19      16.2687      0.00000
     20      16.2687      0.00000
     21      17.5673      0.00000
     22      17.5673      0.00000
     23      20.7119      0.00000
     24      20.7119      0.00000
     25      21.6809      0.00000
     26      21.6809      0.00000
     27      27.5977      0.00000
     28      27.5977      0.00000
     29      32.1998      0.00000
     30      32.1998      0.00000
     31      33.9489      0.00000
     32      33.9489      0.00000

 k-point    99 :       0.2500    0.5000    0.1667
  band No.  band energies     occupation 
      1      -6.5719      2.00000
      2      -6.5719      2.00000
      3      -4.6407      2.00000
      4      -4.6407      2.00000
      5      -4.4027      2.00000
      6      -4.4027      2.00000
      7      -4.3149      2.00000
      8      -4.3149      2.00000
      9      -4.1160      2.00000
     10      -4.1160      2.00000
     11      -2.9163      2.00000
     12      -2.9163      2.00000
     13       2.5327      2.00000
     14       2.5327      2.00000
     15       5.6690      2.00000
     16       5.6690      2.00000
     17       7.0575      2.00000
     18       7.0575      2.00000
     19      14.0065      0.00000
     20      14.0065      0.00000
     21      18.7730      0.00000
     22      18.7730      0.00000
     23      20.9569      0.00000
     24      20.9569      0.00000
     25      23.1955      0.00000
     26      23.1955      0.00000
     27      26.1547      0.00000
     28      26.1547      0.00000
     29      34.9871      0.00000
     30      34.9871      0.00000
     31      36.5227      0.00000
     32      36.5227      0.00000

 k-point   100 :       0.3750    0.5000    0.1667
  band No.  band energies     occupation 
      1      -6.7328      2.00000
      2      -6.7328      2.00000
      3      -4.6834      2.00000
      4      -4.6834      2.00000
      5      -4.2726      2.00000
      6      -4.2726      2.00000
      7      -4.1813      2.00000
      8      -4.1813      2.00000
      9      -4.0920      2.00000
     10      -4.0920      2.00000
     11      -1.9045      2.00000
     12      -1.9045      2.00000
     13       2.3077      2.00000
     14       2.3077      2.00000
     15       4.8924      2.00000
     16       4.8924      2.00000
     17       6.4521      2.00000
     18       6.4521      2.00000
     19      12.4680      0.00000
     20      12.4680      0.00000
     21      18.3367      0.00000
     22      18.3367      0.00000
     23      22.0009      0.00000
     24      22.0009      0.00000
     25      24.5153      0.00000
     26      24.5153      0.00000
     27      25.6829      0.00000
     28      25.6829      0.00000
     29      36.4308      0.00000
     30      36.4308      0.00000
     31      39.0979      0.00000
     32      39.0979      0.00000

 k-point   101 :       0.5000    0.5000    0.1667
  band No.  band energies     occupation 
      1      -6.7904      2.00000
      2      -6.7904      2.00000
      3      -4.7025      2.00000
      4      -4.7025      2.00000
      5      -4.2285      2.00000
      6      -4.2285      2.00000
      7      -4.1393      2.00000
      8      -4.1393      2.00000
      9      -4.0686      2.00000
     10      -4.0686      2.00000
     11      -1.2266      2.00000
     12      -1.2266      2.00000
     13       1.6596      2.00000
     14       1.6596      2.00000
     15       5.5121      2.00000
     16       5.5121      2.00000
     17       5.5844      2.00000
     18       5.5844      2.00000
     19      11.9765      0.00000
     20      11.9765      0.00000
     21      17.9997      0.00000
     22      17.9997      0.00000
     23      22.4667      0.00000
     24      22.4667      0.00000
     25      24.5946      0.00000
     26      24.5946      0.00000
     27      26.0988      0.00000
     28      26.0988      0.00000
     29      36.7517      0.00000
     30      36.7517      0.00000
     31      39.8881      0.00000
     32      39.8881      0.00000

 k-point   102 :      -0.3750    0.5000    0.1667
  band No.  band energies     occupation 
      1      -6.7328      2.00000
      2      -6.7328      2.00000
      3      -4.6834      2.00000
      4      -4.6834      2.00000
      5      -4.2726      2.00000
      6      -4.2726      2.00000
      7      -4.1813      2.00000
      8      -4.1813      2.00000
      9      -4.0920      2.00000
     10      -4.0920      2.00000
     11      -1.9045      2.00000
     12      -1.9045      2.00000
     13       2.3077      2.00000
     14       2.3077      2.00000
     15       4.8924      2.00000
     16       4.8924      2.00000
     17       6.4521      2.00000
     18       6.4521      2.00000
     19      12.4680      0.00000
     20      12.4680      0.00000
     21      18.3367      0.00000
     22      18.3367      0.00000
     23      22.0009      0.00000
     24      22.0009      0.00000
     25      24.5153      0.00000
     26      24.5153      0.00000
     27      25.6829      0.00000
     28      25.6829      0.00000
     29      36.4308      0.00000
     30      36.4308      0.00000
     31      39.0979      0.00000
     32      39.0979      0.00000

 k-point   103 :      -0.2500    0.5000    0.1667
  band No.  band energies     occupation 
      1      -6.5719      2.00000
      2      -6.5719      2.00000
      3      -4.6407      2.00000
      4      -4.6407      2.00000
      5      -4.4027      2.00000
      6      -4.4027      2.00000
      7      -4.3149      2.00000
      8      -4.3149      2.00000
      9      -4.1160      2.00000
     10      -4.1160      2.00000
     11      -2.9163      2.00000
     12      -2.9163      2.00000
     13       2.5327      2.00000
     14       2.5327      2.00000
     15       5.6690      2.00000
     16       5.6690      2.00000
     17       7.0575      2.00000
     18       7.0575      2.00000
     19      14.0065      0.00000
     20      14.0065      0.00000
     21      18.7730      0.00000
     22      18.7730      0.00000
     23      20.9569      0.00000
     24      20.9569      0.00000
     25      23.1955      0.00000
     26      23.1955      0.00000
     27      26.1547      0.00000
     28      26.1547      0.00000
     29      34.9871      0.00000
     30      34.9871      0.00000
     31      36.5227      0.00000
     32      36.5227      0.00000

 k-point   104 :      -0.1250    0.5000    0.1667
  band No.  band energies     occupation 
      1      -6.3607      2.00000
      2      -6.3607      2.00000
      3      -4.6574      2.00000
      4      -4.6574      2.00000
      5      -4.5299      2.00000
      6      -4.5299      2.00000
      7      -4.4592      2.00000
      8      -4.4592      2.00000
      9      -4.1710      2.00000
     10      -4.1710      2.00000
     11      -3.5733      2.00000
     12      -3.5733      2.00000
     13       2.2373      2.00000
     14       2.2373      2.00000
     15       6.4928      2.00000
     16       6.4928      2.00000
     17       8.2005      2.00000
     18       8.2005      2.00000
     19      16.2687      0.00000
     20      16.2687      0.00000
     21      17.5673      0.00000
     22      17.5673      0.00000
     23      20.7119      0.00000
     24      20.7119      0.00000
     25      21.6809      0.00000
     26      21.6809      0.00000
     27      27.5977      0.00000
     28      27.5977      0.00000
     29      32.1998      0.00000
     30      32.1998      0.00000
     31      33.9489      0.00000
     32      33.9489      0.00000

 k-point   105 :       0.0000   -0.3750    0.1667
  band No.  band energies     occupation 
      1      -7.0620      2.00000
      2      -6.1563      2.00000
      3      -4.6619      2.00000
      4      -4.6370      2.00000
      5      -4.5993      2.00000
      6      -4.5545      2.00000
      7      -4.5225      2.00000
      8      -4.4148      2.00000
      9      -4.2801      2.00000
     10      -4.1578      2.00000
     11      -4.1165      2.00000
     12      -2.9493      2.00000
     13       1.5836      2.00000
     14       3.3945      2.00000
     15       5.4246      2.00000
     16       7.7814      2.00000
     17       8.2839      2.00000
     18       9.4854      2.00000
     19      15.2882      0.00000
     20      16.1827      0.00000
     21      18.4114      0.00000
     22      19.2364      0.00000
     23      20.6191      0.00000
     24      20.6976      0.00000
     25      21.3191      0.00000
     26      21.3938      0.00000
     27      28.0233      0.00000
     28      28.1915      0.00000
     29      28.7356      0.00000
     30      31.6983      0.00000
     31      31.8899      0.00000
     32      32.9682      0.00000

 k-point   106 :       0.1250   -0.3750    0.1667
  band No.  band energies     occupation 
      1      -7.0062      2.00000
      2      -6.2404      2.00000
      3      -4.6394      2.00000
      4      -4.6307      2.00000
      5      -4.5228      2.00000
      6      -4.4939      2.00000
      7      -4.4886      2.00000
      8      -4.4444      2.00000
      9      -4.2111      2.00000
     10      -4.1368      2.00000
     11      -4.1001      2.00000
     12      -2.6963      2.00000
     13       1.7572      2.00000
     14       3.5241      2.00000
     15       5.3315      2.00000
     16       7.3116      2.00000
     17       7.6803      2.00000
     18       8.5422      2.00000
     19      16.0486      0.00000
     20      16.2647      0.00000
     21      17.8912      0.00000
     22      18.1206      0.00000
     23      20.4160      0.00000
     24      21.1306      0.00000
     25      21.7447      0.00000
     26      22.1394      0.00000
     27      26.0973      0.00000
     28      29.5024      0.00000
     29      29.8845      0.00000
     30      30.9896      0.00000
     31      32.9440      0.00000
     32      35.6606      0.00000

 k-point   107 :       0.2500   -0.3750    0.1667
  band No.  band energies     occupation 
      1      -6.9001      2.00000
      2      -6.4252      2.00000
      3      -4.6274      2.00000
      4      -4.6067      2.00000
      5      -4.4502      2.00000
      6      -4.3788      2.00000
      7      -4.3621      2.00000
      8      -4.3478      2.00000
      9      -4.1507      2.00000
     10      -4.1096      2.00000
     11      -3.8097      2.00000
     12      -2.0645      2.00000
     13       2.2323      2.00000
     14       3.7573      2.00000
     15       4.3092      2.00000
     16       6.5563      2.00000
     17       6.8574      2.00000
     18       7.2666      2.00000
     19      14.4240      0.00000
     20      14.7679      0.00000
     21      18.7590      0.00000
     22      19.1145      0.00000
     23      20.2629      0.00000
     24      21.0930      0.00000
     25      22.3845      0.00000
     26      23.5107      0.00000
     27      25.3388      0.00000
     28      27.5036      0.00000
     29      32.0019      0.00000
     30      34.8226      0.00000
     31      35.0784      0.00000
     32      37.8616      0.00000

 k-point   108 :       0.3750   -0.3750    0.1667
  band No.  band energies     occupation 
      1      -6.8161      2.00000
      2      -6.6054      2.00000
      3      -4.6674      2.00000
      4      -4.6576      2.00000
      5      -4.3328      2.00000
      6      -4.2951      2.00000
      7      -4.2429      2.00000
      8      -4.1762      2.00000
      9      -4.1421      2.00000
     10      -4.0983      2.00000
     11      -2.9886      2.00000
     12      -1.4915      2.00000
     13       2.2317      2.00000
     14       3.3346      2.00000
     15       3.7565      2.00000
     16       6.0133      2.00000
     17       6.3759      2.00000
     18       6.6137      2.00000
     19      12.9469      0.00000
     20      13.1466      0.00000
     21      18.3922      0.00000
     22      18.8732      0.00000
     23      21.2222      0.00000
     24      21.9757      0.00000
     25      23.7046      0.00000
     26      24.3184      0.00000
     27      25.5595      0.00000
     28      26.0735      0.00000
     29      34.4232      0.00000
     30      36.0996      0.00000
     31      38.2308      0.00000
     32      39.6277      0.00000

 k-point   109 :       0.5000   -0.3750    0.1667
  band No.  band energies     occupation 
      1      -6.7328      2.00000
      2      -6.7328      2.00000
      3      -4.6834      2.00000
      4      -4.6834      2.00000
      5      -4.2726      2.00000
      6      -4.2726      2.00000
      7      -4.1813      2.00000
      8      -4.1813      2.00000
      9      -4.0920      2.00000
     10      -4.0920      2.00000
     11      -1.9045      2.00000
     12      -1.9045      2.00000
     13       2.3077      2.00000
     14       2.3077      2.00000
     15       4.8924      2.00000
     16       4.8924      2.00000
     17       6.4521      2.00000
     18       6.4521      2.00000
     19      12.4680      0.00000
     20      12.4680      0.00000
     21      18.3367      0.00000
     22      18.3367      0.00000
     23      22.0009      0.00000
     24      22.0009      0.00000
     25      24.5153      0.00000
     26      24.5153      0.00000
     27      25.6829      0.00000
     28      25.6829      0.00000
     29      36.4308      0.00000
     30      36.4308      0.00000
     31      39.0979      0.00000
     32      39.0979      0.00000

 k-point   110 :      -0.3750   -0.3750    0.1667
  band No.  band energies     occupation 
      1      -6.8161      2.00000
      2      -6.6054      2.00000
      3      -4.6674      2.00000
      4      -4.6576      2.00000
      5      -4.3328      2.00000
      6      -4.2951      2.00000
      7      -4.2429      2.00000
      8      -4.1762      2.00000
      9      -4.1421      2.00000
     10      -4.0983      2.00000
     11      -2.9886      2.00000
     12      -1.4915      2.00000
     13       2.2317      2.00000
     14       3.3346      2.00000
     15       3.7565      2.00000
     16       6.0133      2.00000
     17       6.3759      2.00000
     18       6.6137      2.00000
     19      12.9469      0.00000
     20      13.1466      0.00000
     21      18.3922      0.00000
     22      18.8732      0.00000
     23      21.2222      0.00000
     24      21.9757      0.00000
     25      23.7046      0.00000
     26      24.3184      0.00000
     27      25.5595      0.00000
     28      26.0735      0.00000
     29      34.4232      0.00000
     30      36.0996      0.00000
     31      38.2308      0.00000
     32      39.5873      0.00000

 k-point   111 :      -0.2500   -0.3750    0.1667
  band No.  band energies     occupation 
      1      -6.9001      2.00000
      2      -6.4252      2.00000
      3      -4.6274      2.00000
      4      -4.6067      2.00000
      5      -4.4502      2.00000
      6      -4.3788      2.00000
      7      -4.3621      2.00000
      8      -4.3478      2.00000
      9      -4.1507      2.00000
     10      -4.1096      2.00000
     11      -3.8097      2.00000
     12      -2.0645      2.00000
     13       2.2323      2.00000
     14       3.7573      2.00000
     15       4.3092      2.00000
     16       6.5563      2.00000
     17       6.8574      2.00000
     18       7.2666      2.00000
     19      14.4240      0.00000
     20      14.7679      0.00000
     21      18.7590      0.00000
     22      19.1145      0.00000
     23      20.2629      0.00000
     24      21.0930      0.00000
     25      22.3845      0.00000
     26      23.5107      0.00000
     27      25.3388      0.00000
     28      27.5036      0.00000
     29      32.0019      0.00000
     30      34.8226      0.00000
     31      35.0784      0.00000
     32      37.8616      0.00000

 k-point   112 :      -0.1250   -0.3750    0.1667
  band No.  band energies     occupation 
      1      -7.0062      2.00000
      2      -6.2404      2.00000
      3      -4.6394      2.00000
      4      -4.6307      2.00000
      5      -4.5228      2.00000
      6      -4.4939      2.00000
      7      -4.4886      2.00000
      8      -4.4444      2.00000
      9      -4.2111      2.00000
     10      -4.1368      2.00000
     11      -4.1001      2.00000
     12      -2.6963      2.00000
     13       1.7572      2.00000
     14       3.5241      2.00000
     15       5.3315      2.00000
     16       7.3116      2.00000
     17       7.6803      2.00000
     18       8.5422      2.00000
     19      16.0486      0.00000
     20      16.2647      0.00000
     21      17.8912      0.00000
     22      18.1206      0.00000
     23      20.4160      0.00000
     24      21.1306      0.00000
     25      21.7447      0.00000
     26      22.1394      0.00000
     27      26.0973      0.00000
     28      29.5024      0.00000
     29      29.8845      0.00000
     30      30.9896      0.00000
     31      32.9440      0.00000
     32      35.6606      0.00000

 k-point   113 :       0.0000   -0.2500    0.1667
  band No.  band energies     occupation 
      1      -8.0092      2.00000
      2      -6.4723      2.00000
      3      -4.6416      2.00000
      4      -4.5299      2.00000
      5      -4.5136      2.00000
      6      -4.5001      2.00000
      7      -4.4121      2.00000
      8      -4.3308      2.00000
      9      -4.3184      2.00000
     10      -4.2757      2.00000
     11      -4.1144      2.00000
     12      -2.3473      2.00000
     13       2.0706      2.00000
     14       4.7512      2.00000
     15       5.1355      2.00000
     16       7.2492      2.00000
     17       8.6727      2.00000
     18       9.2288      2.00000
     19      13.8580      0.00000
     20      15.4943      0.00000
     21      18.9437      0.00000
     22      20.2224      0.00000
     23      21.4175      0.00000
     24      22.0683      0.00000
     25      22.1644      0.00000
     26      23.0536      0.00000
     27      26.3542      0.00000
     28      26.6696      0.00000
     29      27.2590      0.00000
     30      28.9103      0.00000
     31      34.4422      0.00000
     32      35.0032      0.00000

 k-point   114 :       0.1250   -0.2500    0.1667
  band No.  band energies     occupation 
      1      -7.8388      2.00000
      2      -6.4431      2.00000
      3      -4.6005      2.00000
      4      -4.5632      2.00000
      5      -4.5287      2.00000
      6      -4.4624      2.00000
      7      -4.4456      2.00000
      8      -4.3544      2.00000
      9      -4.3143      2.00000
     10      -4.2421      2.00000
     11      -4.1099      2.00000
     12      -2.2115      2.00000
     13       2.3140      2.00000
     14       4.6739      2.00000
     15       5.2111      2.00000
     16       6.3333      2.00000
     17       8.1687      2.00000
     18       8.7605      2.00000
     19      14.9405      0.00000
     20      16.0575      0.00000
     21      19.0785      0.00000
     22      19.5677      0.00000
     23      20.5961      0.00000
     24      20.7443      0.00000
     25      22.4836      0.00000
     26      22.9157      0.00000
     27      25.3338      0.00000
     28      27.5579      0.00000
     29      29.5515      0.00000
     30      30.8050      0.00000
     31      32.0719      0.00000
     32      35.7260      0.00000

 k-point   115 :       0.2500   -0.2500    0.1667
  band No.  band energies     occupation 
      1      -7.3971      2.00000
      2      -6.4001      2.00000
      3      -4.5835      2.00000
      4      -4.5467      2.00000
      5      -4.4957      2.00000
      6      -4.4832      2.00000
      7      -4.4337      2.00000
      8      -4.3543      2.00000
      9      -4.2929      2.00000
     10      -4.1416      2.00000
     11      -4.1028      2.00000
     12      -1.9560      2.00000
     13       2.8712      2.00000
     14       3.6716      2.00000
     15       4.9968      2.00000
     16       5.9979      2.00000
     17       7.0737      2.00000
     18       8.1583      2.00000
     19      15.7301      0.00000
     20      15.7478      0.00000
     21      19.2016      0.00000
     22      19.2356      0.00000
     23      19.5047      0.00000
     24      20.5732      0.00000
     25      21.8763      0.00000
     26      23.4362      0.00000
     27      24.8395      0.00000
     28      29.5240      0.00000
     29      29.5493      0.00000
     30      33.0181      0.00000
     31      33.2128      0.00000
     32      36.2638      0.00000

 k-point   116 :       0.3750   -0.2500    0.1667
  band No.  band energies     occupation 
      1      -6.9001      2.00000
      2      -6.4252      2.00000
      3      -4.6274      2.00000
      4      -4.6067      2.00000
      5      -4.4502      2.00000
      6      -4.3788      2.00000
      7      -4.3621      2.00000
      8      -4.3478      2.00000
      9      -4.1507      2.00000
     10      -4.1096      2.00000
     11      -3.8097      2.00000
     12      -2.0645      2.00000
     13       2.2323      2.00000
     14       3.7573      2.00000
     15       4.3092      2.00000
     16       6.5563      2.00000
     17       6.8574      2.00000
     18       7.2666      2.00000
     19      14.4240      0.00000
     20      14.7679      0.00000
     21      18.7590      0.00000
     22      19.1145      0.00000
     23      20.2629      0.00000
     24      21.0930      0.00000
     25      22.3845      0.00000
     26      23.5107      0.00000
     27      25.3388      0.00000
     28      27.5036      0.00000
     29      32.0019      0.00000
     30      34.8226      0.00000
     31      35.0784      0.00000
     32      37.8616      0.00000

 k-point   117 :       0.5000   -0.2500    0.1667
  band No.  band energies     occupation 
      1      -6.5719      2.00000
      2      -6.5719      2.00000
      3      -4.6407      2.00000
      4      -4.6407      2.00000
      5      -4.4027      2.00000
      6      -4.4027      2.00000
      7      -4.3149      2.00000
      8      -4.3149      2.00000
      9      -4.1160      2.00000
     10      -4.1160      2.00000
     11      -2.9163      2.00000
     12      -2.9163      2.00000
     13       2.5327      2.00000
     14       2.5327      2.00000
     15       5.6690      2.00000
     16       5.6690      2.00000
     17       7.0575      2.00000
     18       7.0575      2.00000
     19      14.0065      0.00000
     20      14.0065      0.00000
     21      18.7730      0.00000
     22      18.7730      0.00000
     23      20.9569      0.00000
     24      20.9569      0.00000
     25      23.1955      0.00000
     26      23.1955      0.00000
     27      26.1547      0.00000
     28      26.1547      0.00000
     29      34.9871      0.00000
     30      34.9871      0.00000
     31      36.5227      0.00000
     32      36.5227      0.00000

 k-point   118 :      -0.3750   -0.2500    0.1667
  band No.  band energies     occupation 
      1      -6.9001      2.00000
      2      -6.4252      2.00000
      3      -4.6274      2.00000
      4      -4.6067      2.00000
      5      -4.4502      2.00000
      6      -4.3788      2.00000
      7      -4.3621      2.00000
      8      -4.3478      2.00000
      9      -4.1507      2.00000
     10      -4.1096      2.00000
     11      -3.8097      2.00000
     12      -2.0645      2.00000
     13       2.2323      2.00000
     14       3.7573      2.00000
     15       4.3092      2.00000
     16       6.5563      2.00000
     17       6.8574      2.00000
     18       7.2666      2.00000
     19      14.4240      0.00000
     20      14.7679      0.00000
     21      18.7590      0.00000
     22      19.1145      0.00000
     23      20.2629      0.00000
     24      21.0930      0.00000
     25      22.3845      0.00000
     26      23.5107      0.00000
     27      25.3388      0.00000
     28      27.5036      0.00000
     29      32.0019      0.00000
     30      34.8226      0.00000
     31      35.0784      0.00000
     32      37.8616      0.00000

 k-point   119 :      -0.2500   -0.2500    0.1667
  band No.  band energies     occupation 
      1      -7.3971      2.00000
      2      -6.4001      2.00000
      3      -4.5835      2.00000
      4      -4.5467      2.00000
      5      -4.4957      2.00000
      6      -4.4832      2.00000
      7      -4.4337      2.00000
      8      -4.3543      2.00000
      9      -4.2929      2.00000
     10      -4.1416      2.00000
     11      -4.1028      2.00000
     12      -1.9560      2.00000
     13       2.8712      2.00000
     14       3.6716      2.00000
     15       4.9968      2.00000
     16       5.9979      2.00000
     17       7.0737      2.00000
     18       8.1583      2.00000
     19      15.7301      0.00000
     20      15.7478      0.00000
     21      19.2016      0.00000
     22      19.2356      0.00000
     23      19.5047      0.00000
     24      20.5732      0.00000
     25      21.8763      0.00000
     26      23.4362      0.00000
     27      24.8395      0.00000
     28      29.5240      0.00000
     29      29.5493      0.00000
     30      33.0181      0.00000
     31      33.2128      0.00000
     32      36.2638      0.00000

 k-point   120 :      -0.1250   -0.2500    0.1667
  band No.  band energies     occupation 
      1      -7.8388      2.00000
      2      -6.4431      2.00000
      3      -4.6005      2.00000
      4      -4.5632      2.00000
      5      -4.5287      2.00000
      6      -4.4624      2.00000
      7      -4.4456      2.00000
      8      -4.3544      2.00000
      9      -4.3143      2.00000
     10      -4.2421      2.00000
     11      -4.1099      2.00000
     12      -2.2115      2.00000
     13       2.3140      2.00000
     14       4.6739      2.00000
     15       5.2111      2.00000
     16       6.3333      2.00000
     17       8.1687      2.00000
     18       8.7605      2.00000
     19      14.9405      0.00000
     20      16.0575      0.00000
     21      19.0785      0.00000
     22      19.5677      0.00000
     23      20.5961      0.00000
     24      20.7443      0.00000
     25      22.4836      0.00000
     26      22.9157      0.00000
     27      25.3338      0.00000
     28      27.5579      0.00000
     29      29.5515      0.00000
     30      30.8050      0.00000
     31      32.0719      0.00000
     32      35.7260      0.00000

 k-point   121 :       0.0000   -0.1250    0.1667
  band No.  band energies     occupation 
      1      -8.6614      2.00000
      2      -6.7748      2.00000
      3      -4.6861      2.00000
      4      -4.4883      2.00000
      5      -4.4504      2.00000
      6      -4.4486      2.00000
      7      -4.3612      2.00000
      8      -4.3353      2.00000
      9      -4.2586      2.00000
     10      -4.1748      2.00000
     11      -4.0964      2.00000
     12      -2.2607      2.00000
     13       2.6048      2.00000
     14       5.3177      2.00000
     15       6.4658      2.00000
     16       6.9848      2.00000
     17       8.8308      2.00000
     18       8.9782      2.00000
     19      12.3643      0.00000
     20      14.6068      0.00000
     21      18.2205      0.00000
     22      21.5336      0.00000
     23      21.8854      0.00000
     24      23.7862      0.00000
     25      23.8368      0.00000
     26      24.6758      0.00000
     27      25.5412      0.00000
     28      26.3532      0.00000
     29      26.7270      0.00000
     30      27.4598      0.00000
     31      31.3610      0.00000
     32      35.0866      0.00000

 k-point   122 :       0.1250   -0.1250    0.1667
  band No.  band energies     occupation 
      1      -8.4459      2.00000
      2      -6.6783      2.00000
      3      -4.6551      2.00000
      4      -4.5025      2.00000
      5      -4.4711      2.00000
      6      -4.4243      2.00000
      7      -4.4104      2.00000
      8      -4.3401      2.00000
      9      -4.2866      2.00000
     10      -4.2168      2.00000
     11      -4.1030      2.00000
     12      -2.2080      2.00000
     13       2.6691      2.00000
     14       5.3423      2.00000
     15       5.7445      2.00000
     16       6.6614      2.00000
     17       8.1823      2.00000
     18       9.1343      2.00000
     19      13.3849      0.00000
     20      15.1970      0.00000
     21      18.6966      0.00000
     22      21.1536      0.00000
     23      21.3032      0.00000
     24      22.0218      0.00000
     25      23.6288      0.00000
     26      23.6763      0.00000
     27      25.2677      0.00000
     28      26.4021      0.00000
     29      28.2322      0.00000
     30      28.9964      0.00000
     31      32.8742      0.00000
     32      34.4438      0.00000

 k-point   123 :       0.2500   -0.1250    0.1667
  band No.  band energies     occupation 
      1      -7.8388      2.00000
      2      -6.4431      2.00000
      3      -4.6005      2.00000
      4      -4.5632      2.00000
      5      -4.5287      2.00000
      6      -4.4624      2.00000
      7      -4.4456      2.00000
      8      -4.3544      2.00000
      9      -4.3143      2.00000
     10      -4.2421      2.00000
     11      -4.1099      2.00000
     12      -2.2115      2.00000
     13       2.3140      2.00000
     14       4.6739      2.00000
     15       5.2111      2.00000
     16       6.3333      2.00000
     17       8.1687      2.00000
     18       8.7605      2.00000
     19      14.9405      0.00000
     20      16.0575      0.00000
     21      19.0785      0.00000
     22      19.5677      0.00000
     23      20.5961      0.00000
     24      20.7443      0.00000
     25      22.4836      0.00000
     26      22.9157      0.00000
     27      25.3338      0.00000
     28      27.5579      0.00000
     29      29.5515      0.00000
     30      30.8050      0.00000
     31      32.0719      0.00000
     32      35.7260      0.00000

 k-point   124 :       0.3750   -0.1250    0.1667
  band No.  band energies     occupation 
      1      -7.0062      2.00000
      2      -6.2404      2.00000
      3      -4.6394      2.00000
      4      -4.6307      2.00000
      5      -4.5228      2.00000
      6      -4.4939      2.00000
      7      -4.4886      2.00000
      8      -4.4444      2.00000
      9      -4.2111      2.00000
     10      -4.1368      2.00000
     11      -4.1001      2.00000
     12      -2.6963      2.00000
     13       1.7572      2.00000
     14       3.5241      2.00000
     15       5.3315      2.00000
     16       7.3116      2.00000
     17       7.6803      2.00000
     18       8.5422      2.00000
     19      16.0486      0.00000
     20      16.2647      0.00000
     21      17.8912      0.00000
     22      18.1206      0.00000
     23      20.4160      0.00000
     24      21.1306      0.00000
     25      21.7447      0.00000
     26      22.1394      0.00000
     27      26.0973      0.00000
     28      29.5024      0.00000
     29      29.8845      0.00000
     30      30.9896      0.00000
     31      32.9440      0.00000
     32      35.6606      0.00000

 k-point   125 :       0.5000   -0.1250    0.1667
  band No.  band energies     occupation 
      1      -6.3607      2.00000
      2      -6.3607      2.00000
      3      -4.6574      2.00000
      4      -4.6574      2.00000
      5      -4.5299      2.00000
      6      -4.5299      2.00000
      7      -4.4592      2.00000
      8      -4.4592      2.00000
      9      -4.1710      2.00000
     10      -4.1710      2.00000
     11      -3.5733      2.00000
     12      -3.5733      2.00000
     13       2.2373      2.00000
     14       2.2373      2.00000
     15       6.4928      2.00000
     16       6.4928      2.00000
     17       8.2005      2.00000
     18       8.2005      2.00000
     19      16.2687      0.00000
     20      16.2687      0.00000
     21      17.5673      0.00000
     22      17.5673      0.00000
     23      20.7119      0.00000
     24      20.7119      0.00000
     25      21.6809      0.00000
     26      21.6809      0.00000
     27      27.5977      0.00000
     28      27.5977      0.00000
     29      32.1998      0.00000
     30      32.1998      0.00000
     31      33.9489      0.00000
     32      33.9489      0.00000

 k-point   126 :      -0.3750   -0.1250    0.1667
  band No.  band energies     occupation 
      1      -7.0062      2.00000
      2      -6.2404      2.00000
      3      -4.6394      2.00000
      4      -4.6307      2.00000
      5      -4.5228      2.00000
      6      -4.4939      2.00000
      7      -4.4886      2.00000
      8      -4.4444      2.00000
      9      -4.2111      2.00000
     10      -4.1368      2.00000
     11      -4.1001      2.00000
     12      -2.6963      2.00000
     13       1.7572      2.00000
     14       3.5241      2.00000
     15       5.3315      2.00000
     16       7.3116      2.00000
     17       7.6803      2.00000
     18       8.5422      2.00000
     19      16.0486      0.00000
     20      16.2647      0.00000
     21      17.8912      0.00000
     22      18.1206      0.00000
     23      20.4160      0.00000
     24      21.1306      0.00000
     25      21.7447      0.00000
     26      22.1394      0.00000
     27      26.0973      0.00000
     28      29.5024      0.00000
     29      29.8845      0.00000
     30      30.9896      0.00000
     31      32.9440      0.00000
     32      35.6606      0.00000

 k-point   127 :      -0.2500   -0.1250    0.1667
  band No.  band energies     occupation 
      1      -7.8388      2.00000
      2      -6.4431      2.00000
      3      -4.6005      2.00000
      4      -4.5632      2.00000
      5      -4.5287      2.00000
      6      -4.4624      2.00000
      7      -4.4456      2.00000
      8      -4.3544      2.00000
      9      -4.3143      2.00000
     10      -4.2421      2.00000
     11      -4.1099      2.00000
     12      -2.2115      2.00000
     13       2.3140      2.00000
     14       4.6739      2.00000
     15       5.2111      2.00000
     16       6.3333      2.00000
     17       8.1687      2.00000
     18       8.7605      2.00000
     19      14.9405      0.00000
     20      16.0575      0.00000
     21      19.0785      0.00000
     22      19.5677      0.00000
     23      20.5961      0.00000
     24      20.7443      0.00000
     25      22.4836      0.00000
     26      22.9157      0.00000
     27      25.3338      0.00000
     28      27.5579      0.00000
     29      29.5515      0.00000
     30      30.8050      0.00000
     31      32.0719      0.00000
     32      35.7260      0.00000

 k-point   128 :      -0.1250   -0.1250    0.1667
  band No.  band energies     occupation 
      1      -8.4459      2.00000
      2      -6.6783      2.00000
      3      -4.6551      2.00000
      4      -4.5025      2.00000
      5      -4.4711      2.00000
      6      -4.4243      2.00000
      7      -4.4104      2.00000
      8      -4.3401      2.00000
      9      -4.2866      2.00000
     10      -4.2168      2.00000
     11      -4.1030      2.00000
     12      -2.2080      2.00000
     13       2.6691      2.00000
     14       5.3423      2.00000
     15       5.7445      2.00000
     16       6.6614      2.00000
     17       8.1823      2.00000
     18       9.1343      2.00000
     19      13.3849      0.00000
     20      15.1970      0.00000
     21      18.6966      0.00000
     22      21.1536      0.00000
     23      21.3032      0.00000
     24      22.0218      0.00000
     25      23.6288      0.00000
     26      23.6763      0.00000
     27      25.2677      0.00000
     28      26.4021      0.00000
     29      28.2322      0.00000
     30      28.9964      0.00000
     31      32.8742      0.00000
     32      34.4438      0.00000

 k-point   129 :       0.0000    0.0000    0.3333
  band No.  band energies     occupation 
      1      -8.3241      2.00000
      2      -7.0431      2.00000
      3      -4.6617      2.00000
      4      -4.5276      2.00000
      5      -4.4787      2.00000
      6      -4.3845      2.00000
      7      -4.3845      2.00000
      8      -4.2854      2.00000
      9      -4.2091      2.00000
     10      -4.1904      2.00000
     11      -4.1904      2.00000
     12      -3.7086      2.00000
     13       4.3656      2.00000
     14       6.6927      2.00000
     15       6.6927      2.00000
     16       7.0553      2.00000
     17       8.1255      2.00000
     18       8.1255      2.00000
     19      12.9859      0.00000
     20      15.5776      0.00000
     21      18.3295      0.00000
     22      20.8964      0.00000
     23      20.9320      0.00000
     24      21.0288      0.00000
     25      23.9317      0.00000
     26      23.9317      0.00000
     27      24.7294      0.00000
     28      24.7294      0.00000
     29      31.4341      0.00000
     30      31.4341      0.00000
     31      32.1271      0.00000
     32      33.2412      0.00000

 k-point   130 :       0.1250   -0.0000    0.3333
  band No.  band energies     occupation 
      1      -8.1017      2.00000
      2      -6.8846      2.00000
      3      -4.6443      2.00000
      4      -4.5352      2.00000
      5      -4.5149      2.00000
      6      -4.4350      2.00000
      7      -4.3427      2.00000
      8      -4.3206      2.00000
      9      -4.2908      2.00000
     10      -4.2708      2.00000
     11      -4.1388      2.00000
     12      -3.6079      2.00000
     13       3.7539      2.00000
     14       5.8018      2.00000
     15       6.5407      2.00000
     16       6.9643      2.00000
     17       8.3339      2.00000
     18       8.7533      2.00000
     19      13.7212      0.00000
     20      15.7686      0.00000
     21      18.6487      0.00000
     22      20.1772      0.00000
     23      20.6211      0.00000
     24      21.0263      0.00000
     25      23.2202      0.00000
     26      23.9579      0.00000
     27      25.1424      0.00000
     28      25.2334      0.00000
     29      29.1385      0.00000
     30      30.1996      0.00000
     31      34.4494      0.00000
     32      35.5855      0.00000

 k-point   131 :       0.2500   -0.0000    0.3333
  band No.  band energies     occupation 
      1      -7.4651      2.00000
      2      -6.4587      2.00000
      3      -4.6469      2.00000
      4      -4.5934      2.00000
      5      -4.5455      2.00000
      6      -4.5455      2.00000
      7      -4.4790      2.00000
      8      -4.4097      2.00000
      9      -4.2718      2.00000
     10      -4.2403      2.00000
     11      -4.1238      2.00000
     12      -3.4945      2.00000
     13       2.2347      2.00000
     14       3.8822      2.00000
     15       6.8146      2.00000
     16       7.6922      2.00000
     17       8.8485      2.00000
     18       9.1926      2.00000
     19      14.9931      0.00000
     20      15.6128      0.00000
     21      18.2316      0.00000
     22      19.8573      0.00000
     23      20.9842      0.00000
     24      20.9958      0.00000
     25      21.5557      0.00000
     26      22.2427      0.00000
     27      26.4538      0.00000
     28      26.5345      0.00000
     29      28.5093      0.00000
     30      29.9378      0.00000
     31      33.4545      0.00000
     32      35.3624      0.00000

 k-point   132 :       0.3750   -0.0000    0.3333
  band No.  band energies     occupation 
      1      -6.5454      2.00000
      2      -5.9419      2.00000
      3      -4.7461      2.00000
      4      -4.6598      2.00000
      5      -4.6467      2.00000
      6      -4.6168      2.00000
      7      -4.6085      2.00000
      8      -4.4270      2.00000
      9      -4.2025      2.00000
     10      -4.1835      2.00000
     11      -4.1360      2.00000
     12      -3.6359      2.00000
     13       1.0243      2.00000
     14       2.1327      2.00000
     15       7.5513      2.00000
     16       8.6156      2.00000
     17       9.1056      2.00000
     18       9.3290      2.00000
     19      15.1933      0.00000
     20      15.8582      0.00000
     21      17.4717      0.00000
     22      19.9468      0.00000
     23      20.0728      0.00000
     24      20.5058      0.00000
     25      20.5557      0.00000
     26      21.5436      0.00000
     27      26.6242      0.00000
     28      28.3703      0.00000
     29      30.7249      0.00000
     30      31.4833      0.00000
     31      31.7614      0.00000
     32      34.0010      0.00000

 k-point   133 :       0.5000   -0.0000    0.3333
  band No.  band energies     occupation 
      1      -5.8041      2.00000
      2      -5.8041      2.00000
      3      -4.8021      2.00000
      4      -4.8021      2.00000
      5      -4.6789      2.00000
      6      -4.6789      2.00000
      7      -4.5160      2.00000
      8      -4.5160      2.00000
      9      -4.1650      2.00000
     10      -4.1650      2.00000
     11      -4.0163      2.00000
     12      -4.0163      2.00000
     13       1.0178      2.00000
     14       1.0178      2.00000
     15       8.4465      2.00000
     16       8.4465      2.00000
     17       9.2958      2.00000
     18       9.2958      2.00000
     19      15.4173      0.00000
     20      15.4173      0.00000
     21      18.4444      0.00000
     22      18.4444      0.00000
     23      19.6679      0.00000
     24      19.6679      0.00000
     25      21.2187      0.00000
     26      21.2187      0.00000
     27      27.7864      0.00000
     28      27.7864      0.00000
     29      32.1692      0.00000
     30      32.1692      0.00000
     31      33.4074      0.00000
     32      33.4074      0.00000

 k-point   134 :      -0.3750    0.0000    0.3333
  band No.  band energies     occupation 
      1      -6.5454      2.00000
      2      -5.9419      2.00000
      3      -4.7461      2.00000
      4      -4.6598      2.00000
      5      -4.6467      2.00000
      6      -4.6168      2.00000
      7      -4.6085      2.00000
      8      -4.4270      2.00000
      9      -4.2025      2.00000
     10      -4.1835      2.00000
     11      -4.1360      2.00000
     12      -3.6359      2.00000
     13       1.0243      2.00000
     14       2.1327      2.00000
     15       7.5513      2.00000
     16       8.6156      2.00000
     17       9.1056      2.00000
     18       9.3290      2.00000
     19      15.1933      0.00000
     20      15.8582      0.00000
     21      17.4717      0.00000
     22      19.9468      0.00000
     23      20.0728      0.00000
     24      20.5058      0.00000
     25      20.5557      0.00000
     26      21.5436      0.00000
     27      26.6242      0.00000
     28      28.3703      0.00000
     29      30.7249      0.00000
     30      31.4833      0.00000
     31      31.7614      0.00000
     32      34.0010      0.00000

 k-point   135 :      -0.2500    0.0000    0.3333
  band No.  band energies     occupation 
      1      -7.4651      2.00000
      2      -6.4587      2.00000
      3      -4.6469      2.00000
      4      -4.5934      2.00000
      5      -4.5455      2.00000
      6      -4.5455      2.00000
      7      -4.4790      2.00000
      8      -4.4097      2.00000
      9      -4.2718      2.00000
     10      -4.2403      2.00000
     11      -4.1238      2.00000
     12      -3.4945      2.00000
     13       2.2347      2.00000
     14       3.8822      2.00000
     15       6.8146      2.00000
     16       7.6922      2.00000
     17       8.8485      2.00000
     18       9.1926      2.00000
     19      14.9931      0.00000
     20      15.6128      0.00000
     21      18.2316      0.00000
     22      19.8573      0.00000
     23      20.9842      0.00000
     24      20.9958      0.00000
     25      21.5557      0.00000
     26      22.2427      0.00000
     27      26.4538      0.00000
     28      26.5345      0.00000
     29      28.5093      0.00000
     30      29.9378      0.00000
     31      33.4545      0.00000
     32      35.3624      0.00000

 k-point   136 :      -0.1250    0.0000    0.3333
  band No.  band energies     occupation 
      1      -8.1017      2.00000
      2      -6.8846      2.00000
      3      -4.6443      2.00000
      4      -4.5352      2.00000
      5      -4.5149      2.00000
      6      -4.4350      2.00000
      7      -4.3427      2.00000
      8      -4.3206      2.00000
      9      -4.2908      2.00000
     10      -4.2708      2.00000
     11      -4.1388      2.00000
     12      -3.6079      2.00000
     13       3.7539      2.00000
     14       5.8018      2.00000
     15       6.5407      2.00000
     16       6.9643      2.00000
     17       8.3339      2.00000
     18       8.7533      2.00000
     19      13.7212      0.00000
     20      15.7686      0.00000
     21      18.6487      0.00000
     22      20.1772      0.00000
     23      20.6211      0.00000
     24      21.0263      0.00000
     25      23.2202      0.00000
     26      23.9579      0.00000
     27      25.1424      0.00000
     28      25.2334      0.00000
     29      29.1385      0.00000
     30      30.1996      0.00000
     31      34.4494      0.00000
     32      35.5855      0.00000

 k-point   137 :      -0.0000    0.1250    0.3333
  band No.  band energies     occupation 
      1      -8.1017      2.00000
      2      -6.8846      2.00000
      3      -4.6443      2.00000
      4      -4.5352      2.00000
      5      -4.5149      2.00000
      6      -4.4350      2.00000
      7      -4.3427      2.00000
      8      -4.3206      2.00000
      9      -4.2908      2.00000
     10      -4.2708      2.00000
     11      -4.1388      2.00000
     12      -3.6079      2.00000
     13       3.7539      2.00000
     14       5.8018      2.00000
     15       6.5407      2.00000
     16       6.9643      2.00000
     17       8.3339      2.00000
     18       8.7533      2.00000
     19      13.7212      0.00000
     20      15.7686      0.00000
     21      18.6487      0.00000
     22      20.1772      0.00000
     23      20.6211      0.00000
     24      21.0263      0.00000
     25      23.2202      0.00000
     26      23.9579      0.00000
     27      25.1424      0.00000
     28      25.2334      0.00000
     29      29.1385      0.00000
     30      30.1996      0.00000
     31      34.4494      0.00000
     32      35.5855      0.00000

 k-point   138 :       0.1250    0.1250    0.3333
  band No.  band energies     occupation 
      1      -7.8928      2.00000
      2      -6.7476      2.00000
      3      -4.6185      2.00000
      4      -4.5387      2.00000
      5      -4.5255      2.00000
      6      -4.4790      2.00000
      7      -4.4309      2.00000
      8      -4.3699      2.00000
      9      -4.2802      2.00000
     10      -4.2029      2.00000
     11      -4.1892      2.00000
     12      -3.4944      2.00000
     13       3.5724      2.00000
     14       5.4513      2.00000
     15       5.9052      2.00000
     16       7.2261      2.00000
     17       7.5373      2.00000
     18       9.3499      2.00000
     19      14.5625      0.00000
     20      16.1419      0.00000
     21      19.0765      0.00000
     22      19.8359      0.00000
     23      20.2940      0.00000
     24      20.2980      0.00000
     25      22.3755      0.00000
     26      23.3639      0.00000
     27      25.9188      0.00000
     28      25.9268      0.00000
     29      29.0578      0.00000
     30      30.3454      0.00000
     31      34.5798      0.00000
     32      35.5824      0.00000

 k-point   139 :       0.2500    0.1250    0.3333
  band No.  band energies     occupation 
      1      -7.3087      2.00000
      2      -6.3978      2.00000
      3      -4.6232      2.00000
      4      -4.6086      2.00000
      5      -4.5675      2.00000
      6      -4.5224      2.00000
      7      -4.5150      2.00000
      8      -4.4267      2.00000
      9      -4.3072      2.00000
     10      -4.1658      2.00000
     11      -4.1333      2.00000
     12      -3.3200      2.00000
     13       2.4440      2.00000
     14       3.9963      2.00000
     15       5.8575      2.00000
     16       7.5946      2.00000
     17       7.7419      2.00000
     18       9.4693      2.00000
     19      15.9277      0.00000
     20      16.3488      0.00000
     21      18.0459      0.00000
     22      19.3236      0.00000
     23      20.4453      0.00000
     24      20.4682      0.00000
     25      21.1523      0.00000
     26      22.1092      0.00000
     27      27.3239      0.00000
     28      27.5015      0.00000
     29      28.5324      0.00000
     30      31.3664      0.00000
     31      32.4953      0.00000
     32      34.7028      0.00000

 k-point   140 :       0.3750    0.1250    0.3333
  band No.  band energies     occupation 
      1      -6.5300      2.00000
      2      -6.0362      2.00000
      3      -4.7195      2.00000
      4      -4.7029      2.00000
      5      -4.5867      2.00000
      6      -4.5828      2.00000
      7      -4.5156      2.00000
      8      -4.4285      2.00000
      9      -4.1857      2.00000
     10      -4.1491      2.00000
     11      -4.0747      2.00000
     12      -3.3461      2.00000
     13       1.2296      2.00000
     14       2.3094      2.00000
     15       6.7143      2.00000
     16       8.1611      2.00000
     17       8.3294      2.00000
     18       8.9411      2.00000
     19      16.0288      0.00000
     20      16.4985      0.00000
     21      17.0321      0.00000
     22      18.0798      0.00000
     23      20.8793      0.00000
     24      20.9093      0.00000
     25      20.9386      0.00000
     26      21.4575      0.00000
     27      27.1737      0.00000
     28      29.5179      0.00000
     29      30.3104      0.00000
     30      30.5706      0.00000
     31      33.1879      0.00000
     32      33.6524      0.00000

 k-point   141 :       0.5000    0.1250    0.3333
  band No.  band energies     occupation 
      1      -5.9998      2.00000
      2      -5.9998      2.00000
      3      -4.7438      2.00000
      4      -4.7438      2.00000
      5      -4.6112      2.00000
      6      -4.6112      2.00000
      7      -4.4436      2.00000
      8      -4.4436      2.00000
      9      -4.1348      2.00000
     10      -4.1348      2.00000
     11      -3.7669      2.00000
     12      -3.7669      2.00000
     13       1.1875      2.00000
     14       1.1875      2.00000
     15       7.8489      2.00000
     16       7.8489      2.00000
     17       8.5762      2.00000
     18       8.5762      2.00000
     19      15.9036      0.00000
     20      15.9036      0.00000
     21      17.4587      0.00000
     22      17.4587      0.00000
     23      20.6137      0.00000
     24      20.6137      0.00000
     25      21.4530      0.00000
     26      21.4530      0.00000
     27      27.9966      0.00000
     28      27.9966      0.00000
     29      31.5879      0.00000
     30      31.5879      0.00000
     31      34.6141      0.00000
     32      34.6141      0.00000

 k-point   142 :      -0.3750    0.1250    0.3333
  band No.  band energies     occupation 
      1      -6.5300      2.00000
      2      -6.0362      2.00000
      3      -4.7195      2.00000
      4      -4.7029      2.00000
      5      -4.5867      2.00000
      6      -4.5828      2.00000
      7      -4.5156      2.00000
      8      -4.4285      2.00000
      9      -4.1857      2.00000
     10      -4.1491      2.00000
     11      -4.0747      2.00000
     12      -3.3461      2.00000
     13       1.2296      2.00000
     14       2.3094      2.00000
     15       6.7143      2.00000
     16       8.1611      2.00000
     17       8.3294      2.00000
     18       8.9411      2.00000
     19      16.0288      0.00000
     20      16.4985      0.00000
     21      17.0321      0.00000
     22      18.0798      0.00000
     23      20.8793      0.00000
     24      20.9093      0.00000
     25      20.9386      0.00000
     26      21.4575      0.00000
     27      27.1737      0.00000
     28      29.5179      0.00000
     29      30.3104      0.00000
     30      30.5706      0.00000
     31      33.1879      0.00000
     32      33.6524      0.00000

 k-point   143 :      -0.2500    0.1250    0.3333
  band No.  band energies     occupation 
      1      -7.3087      2.00000
      2      -6.3978      2.00000
      3      -4.6232      2.00000
      4      -4.6086      2.00000
      5      -4.5675      2.00000
      6      -4.5224      2.00000
      7      -4.5150      2.00000
      8      -4.4267      2.00000
      9      -4.3072      2.00000
     10      -4.1658      2.00000
     11      -4.1333      2.00000
     12      -3.3200      2.00000
     13       2.4440      2.00000
     14       3.9963      2.00000
     15       5.8575      2.00000
     16       7.5946      2.00000
     17       7.7419      2.00000
     18       9.4693      2.00000
     19      15.9277      0.00000
     20      16.3488      0.00000
     21      18.0459      0.00000
     22      19.3236      0.00000
     23      20.4453      0.00000
     24      20.4682      0.00000
     25      21.1523      0.00000
     26      22.1092      0.00000
     27      27.3239      0.00000
     28      27.5015      0.00000
     29      28.5324      0.00000
     30      31.3664      0.00000
     31      32.4953      0.00000
     32      34.7028      0.00000

 k-point   144 :      -0.1250    0.1250    0.3333
  band No.  band energies     occupation 
      1      -7.8928      2.00000
      2      -6.7476      2.00000
      3      -4.6185      2.00000
      4      -4.5387      2.00000
      5      -4.5255      2.00000
      6      -4.4790      2.00000
      7      -4.4309      2.00000
      8      -4.3699      2.00000
      9      -4.2802      2.00000
     10      -4.2029      2.00000
     11      -4.1892      2.00000
     12      -3.4944      2.00000
     13       3.5724      2.00000
     14       5.4513      2.00000
     15       5.9052      2.00000
     16       7.2261      2.00000
     17       7.5373      2.00000
     18       9.3499      2.00000
     19      14.5625      0.00000
     20      16.1419      0.00000
     21      19.0765      0.00000
     22      19.8359      0.00000
     23      20.2940      0.00000
     24      20.2980      0.00000
     25      22.3755      0.00000
     26      23.3639      0.00000
     27      25.9188      0.00000
     28      25.9268      0.00000
     29      29.0578      0.00000
     30      30.3454      0.00000
     31      34.5798      0.00000
     32      35.5824      0.00000

 k-point   145 :      -0.0000    0.2500    0.3333
  band No.  band energies     occupation 
      1      -7.4651      2.00000
      2      -6.4587      2.00000
      3      -4.6469      2.00000
      4      -4.5934      2.00000
      5      -4.5455      2.00000
      6      -4.5455      2.00000
      7      -4.4790      2.00000
      8      -4.4097      2.00000
      9      -4.2718      2.00000
     10      -4.2403      2.00000
     11      -4.1238      2.00000
     12      -3.4945      2.00000
     13       2.2347      2.00000
     14       3.8822      2.00000
     15       6.8146      2.00000
     16       7.6922      2.00000
     17       8.8485      2.00000
     18       9.1926      2.00000
     19      14.9931      0.00000
     20      15.6128      0.00000
     21      18.2316      0.00000
     22      19.8573      0.00000
     23      20.9842      0.00000
     24      20.9958      0.00000
     25      21.5557      0.00000
     26      22.2427      0.00000
     27      26.4538      0.00000
     28      26.5345      0.00000
     29      28.5093      0.00000
     30      29.9378      0.00000
     31      33.4545      0.00000
     32      35.3624      0.00000

 k-point   146 :       0.1250    0.2500    0.3333
  band No.  band energies     occupation 
      1      -7.3087      2.00000
      2      -6.3978      2.00000
      3      -4.6232      2.00000
      4      -4.6086      2.00000
      5      -4.5675      2.00000
      6      -4.5224      2.00000
      7      -4.5150      2.00000
      8      -4.4267      2.00000
      9      -4.3072      2.00000
     10      -4.1658      2.00000
     11      -4.1333      2.00000
     12      -3.3200      2.00000
     13       2.4440      2.00000
     14       3.9963      2.00000
     15       5.8575      2.00000
     16       7.5946      2.00000
     17       7.7419      2.00000
     18       9.4693      2.00000
     19      15.9277      0.00000
     20      16.3488      0.00000
     21      18.0459      0.00000
     22      19.3236      0.00000
     23      20.4453      0.00000
     24      20.4682      0.00000
     25      21.1523      0.00000
     26      22.1092      0.00000
     27      27.3239      0.00000
     28      27.5015      0.00000
     29      28.5324      0.00000
     30      31.3664      0.00000
     31      32.4953      0.00000
     32      34.7028      0.00000

 k-point   147 :       0.2500    0.2500    0.3333
  band No.  band energies     occupation 
      1      -6.9188      2.00000
      2      -6.2827      2.00000
      3      -4.6141      2.00000
      4      -4.6023      2.00000
      5      -4.5524      2.00000
      6      -4.5120      2.00000
      7      -4.4939      2.00000
      8      -4.4902      2.00000
      9      -4.2826      2.00000
     10      -4.1803      2.00000
     11      -3.9561      2.00000
     12      -2.9568      2.00000
     13       2.7495      2.00000
     14       3.9210      2.00000
     15       4.3091      2.00000
     16       6.2423      2.00000
     17       7.9556      2.00000
     18       9.0127      2.00000
     19      15.9363      0.00000
     20      17.1329      0.00000
     21      17.9898      0.00000
     22      18.5776      0.00000
     23      19.7878      0.00000
     24      20.4278      0.00000
     25      21.7723      0.00000
     26      21.8028      0.00000
     27      26.7351      0.00000
     28      29.3282      0.00000
     29      30.1423      0.00000
     30      31.7308      0.00000
     31      32.6867      0.00000
     32      34.6740      0.00000

 k-point   148 :       0.3750    0.2500    0.3333
  band No.  band energies     occupation 
      1      -6.5243      2.00000
      2      -6.2352      2.00000
      3      -4.6364      2.00000
      4      -4.6225      2.00000
      5      -4.5192      2.00000
      6      -4.5105      2.00000
      7      -4.4356      2.00000
      8      -4.4065      2.00000
      9      -4.1801      2.00000
     10      -4.1543      2.00000
     11      -3.6093      2.00000
     12      -2.6707      2.00000
     13       1.8640      2.00000
     14       2.7670      2.00000
     15       4.7264      2.00000
     16       6.2836      2.00000
     17       7.9995      2.00000
     18       8.0134      2.00000
     19      14.9527      0.00000
     20      15.8703      0.00000
     21      18.0964      0.00000
     22      18.8122      0.00000
     23      20.3265      0.00000
     24      21.2380      0.00000
     25      21.8207      0.00000
     26      22.1788      0.00000
     27      26.9214      0.00000
     28      28.2001      0.00000
     29      31.7938      0.00000
     30      32.9816      0.00000
     31      34.0292      0.00000
     32      34.2710      0.00000

 k-point   149 :       0.5000    0.2500    0.3333
  band No.  band energies     occupation 
      1      -6.3042      2.00000
      2      -6.3042      2.00000
      3      -4.6488      2.00000
      4      -4.6488      2.00000
      5      -4.4984      2.00000
      6      -4.4984      2.00000
      7      -4.3888      2.00000
      8      -4.3888      2.00000
      9      -4.1248      2.00000
     10      -4.1248      2.00000
     11      -2.9613      2.00000
     12      -2.9613      2.00000
     13       1.7003      2.00000
     14       1.7003      2.00000
     15       5.9397      2.00000
     16       5.9397      2.00000
     17       7.6613      2.00000
     18       7.6613      2.00000
     19      14.9263      0.00000
     20      14.9263      0.00000
     21      18.3619      0.00000
     22      18.3619      0.00000
     23      21.2674      0.00000
     24      21.2674      0.00000
     25      22.0631      0.00000
     26      22.0631      0.00000
     27      27.2534      0.00000
     28      27.2534      0.00000
     29      33.2110      0.00000
     30      33.2110      0.00000
     31      34.9124      0.00000
     32      34.9124      0.00000

 k-point   150 :      -0.3750    0.2500    0.3333
  band No.  band energies     occupation 
      1      -6.5243      2.00000
      2      -6.2352      2.00000
      3      -4.6364      2.00000
      4      -4.6225      2.00000
      5      -4.5192      2.00000
      6      -4.5105      2.00000
      7      -4.4356      2.00000
      8      -4.4065      2.00000
      9      -4.1801      2.00000
     10      -4.1543      2.00000
     11      -3.6093      2.00000
     12      -2.6707      2.00000
     13       1.8640      2.00000
     14       2.7670      2.00000
     15       4.7264      2.00000
     16       6.2836      2.00000
     17       7.9995      2.00000
     18       8.0134      2.00000
     19      14.9527      0.00000
     20      15.8703      0.00000
     21      18.0964      0.00000
     22      18.8122      0.00000
     23      20.3265      0.00000
     24      21.2380      0.00000
     25      21.8207      0.00000
     26      22.1788      0.00000
     27      26.9214      0.00000
     28      28.2001      0.00000
     29      31.7938      0.00000
     30      32.9816      0.00000
     31      34.0292      0.00000
     32      34.2710      0.00000

 k-point   151 :      -0.2500    0.2500    0.3333
  band No.  band energies     occupation 
      1      -6.9188      2.00000
      2      -6.2827      2.00000
      3      -4.6141      2.00000
      4      -4.6023      2.00000
      5      -4.5524      2.00000
      6      -4.5120      2.00000
      7      -4.4939      2.00000
      8      -4.4902      2.00000
      9      -4.2826      2.00000
     10      -4.1803      2.00000
     11      -3.9561      2.00000
     12      -2.9568      2.00000
     13       2.7495      2.00000
     14       3.9210      2.00000
     15       4.3091      2.00000
     16       6.2423      2.00000
     17       7.9556      2.00000
     18       9.0127      2.00000
     19      15.9363      0.00000
     20      17.1329      0.00000
     21      17.9898      0.00000
     22      18.5776      0.00000
     23      19.7878      0.00000
     24      20.4278      0.00000
     25      21.7723      0.00000
     26      21.8028      0.00000
     27      26.7351      0.00000
     28      29.3282      0.00000
     29      30.1423      0.00000
     30      31.7308      0.00000
     31      32.6867      0.00000
     32      34.6740      0.00000

 k-point   152 :      -0.1250    0.2500    0.3333
  band No.  band energies     occupation 
      1      -7.3087      2.00000
      2      -6.3978      2.00000
      3      -4.6232      2.00000
      4      -4.6086      2.00000
      5      -4.5675      2.00000
      6      -4.5224      2.00000
      7      -4.5150      2.00000
      8      -4.4267      2.00000
      9      -4.3072      2.00000
     10      -4.1658      2.00000
     11      -4.1333      2.00000
     12      -3.3200      2.00000
     13       2.4440      2.00000
     14       3.9963      2.00000
     15       5.8575      2.00000
     16       7.5946      2.00000
     17       7.7419      2.00000
     18       9.4693      2.00000
     19      15.9277      0.00000
     20      16.3488      0.00000
     21      18.0459      0.00000
     22      19.3236      0.00000
     23      20.4453      0.00000
     24      20.4682      0.00000
     25      21.1523      0.00000
     26      22.1092      0.00000
     27      27.3239      0.00000
     28      27.5015      0.00000
     29      28.5324      0.00000
     30      31.3664      0.00000
     31      32.4953      0.00000
     32      34.7028      0.00000

 k-point   153 :      -0.0000    0.3750    0.3333
  band No.  band energies     occupation 
      1      -6.5454      2.00000
      2      -5.9419      2.00000
      3      -4.7461      2.00000
      4      -4.6598      2.00000
      5      -4.6467      2.00000
      6      -4.6168      2.00000
      7      -4.6085      2.00000
      8      -4.4270      2.00000
      9      -4.2025      2.00000
     10      -4.1835      2.00000
     11      -4.1360      2.00000
     12      -3.6359      2.00000
     13       1.0243      2.00000
     14       2.1327      2.00000
     15       7.5513      2.00000
     16       8.6156      2.00000
     17       9.1056      2.00000
     18       9.3290      2.00000
     19      15.1933      0.00000
     20      15.8582      0.00000
     21      17.4717      0.00000
     22      19.9468      0.00000
     23      20.0728      0.00000
     24      20.5058      0.00000
     25      20.5557      0.00000
     26      21.5436      0.00000
     27      26.6242      0.00000
     28      28.3703      0.00000
     29      30.7249      0.00000
     30      31.4833      0.00000
     31      31.7614      0.00000
     32      34.0010      0.00000

 k-point   154 :       0.1250    0.3750    0.3333
  band No.  band energies     occupation 
      1      -6.5300      2.00000
      2      -6.0362      2.00000
      3      -4.7195      2.00000
      4      -4.7029      2.00000
      5      -4.5867      2.00000
      6      -4.5828      2.00000
      7      -4.5156      2.00000
      8      -4.4285      2.00000
      9      -4.1857      2.00000
     10      -4.1491      2.00000
     11      -4.0747      2.00000
     12      -3.3461      2.00000
     13       1.2296      2.00000
     14       2.3094      2.00000
     15       6.7143      2.00000
     16       8.1611      2.00000
     17       8.3294      2.00000
     18       8.9411      2.00000
     19      16.0288      0.00000
     20      16.4985      0.00000
     21      17.0321      0.00000
     22      18.0798      0.00000
     23      20.8793      0.00000
     24      20.9093      0.00000
     25      20.9386      0.00000
     26      21.4575      0.00000
     27      27.1737      0.00000
     28      29.5179      0.00000
     29      30.3104      0.00000
     30      30.5706      0.00000
     31      33.1879      0.00000
     32      33.6524      0.00000

 k-point   155 :       0.2500    0.3750    0.3333
  band No.  band energies     occupation 
      1      -6.5243      2.00000
      2      -6.2352      2.00000
      3      -4.6364      2.00000
      4      -4.6225      2.00000
      5      -4.5192      2.00000
      6      -4.5105      2.00000
      7      -4.4356      2.00000
      8      -4.4065      2.00000
      9      -4.1801      2.00000
     10      -4.1543      2.00000
     11      -3.6093      2.00000
     12      -2.6707      2.00000
     13       1.8640      2.00000
     14       2.7670      2.00000
     15       4.7264      2.00000
     16       6.2836      2.00000
     17       7.9995      2.00000
     18       8.0134      2.00000
     19      14.9527      0.00000
     20      15.8703      0.00000
     21      18.0964      0.00000
     22      18.8122      0.00000
     23      20.3265      0.00000
     24      21.2380      0.00000
     25      21.8207      0.00000
     26      22.1788      0.00000
     27      26.9214      0.00000
     28      28.2001      0.00000
     29      31.7938      0.00000
     30      32.9816      0.00000
     31      34.0292      0.00000
     32      34.2710      0.00000

 k-point   156 :       0.3750    0.3750    0.3333
  band No.  band energies     occupation 
      1      -6.5374      2.00000
      2      -6.4130      2.00000
      3      -4.6214      2.00000
      4      -4.5990      2.00000
      5      -4.4711      2.00000
      6      -4.4328      2.00000
      7      -4.3464      2.00000
      8      -4.3118      2.00000
      9      -4.1415      2.00000
     10      -4.1303      2.00000
     11      -2.7879      2.00000
     12      -1.9653      2.00000
     13       2.9348      2.00000
     14       2.9464      2.00000
     15       2.9466      2.00000
     16       5.0676      2.00000
     17       6.5673      2.00000
     18       7.2683      2.00000
     19      14.1490      0.00000
     20      14.9009      0.00000
     21      19.3252      0.00000
     22      19.4083      0.00000
     23      19.7325      0.00000
     24      21.4142      0.00000
     25      22.7225      0.00000
     26      22.9349      0.00000
     27      26.9215      0.00000
     28      27.0234      0.00000
     29      32.4554      0.00000
     30      33.0894      0.00000
     31      36.3868      0.00000
     32      37.8174      0.00000

 k-point   157 :       0.5000    0.3750    0.3333
  band No.  band energies     occupation 
      1      -6.5136      2.00000
      2      -6.5136      2.00000
      3      -4.6196      2.00000
      4      -4.6196      2.00000
      5      -4.4140      2.00000
      6      -4.4140      2.00000
      7      -4.3133      2.00000
      8      -4.3133      2.00000
      9      -4.0998      2.00000
     10      -4.0998      2.00000
     11      -1.9512      2.00000
     12      -1.9512      2.00000
     13       2.3838      2.00000
     14       2.3838      2.00000
     15       4.3370      2.00000
     16       4.3370      2.00000
     17       6.2410      2.00000
     18       6.2410      2.00000
     19      14.2869      0.00000
     20      14.2869      0.00000
     21      19.1716      0.00000
     22      19.1716      0.00000
     23      21.1329      0.00000
     24      21.1329      0.00000
     25      22.7689      0.00000
     26      22.7689      0.00000
     27      27.0570      0.00000
     28      27.0570      0.00000
     29      32.8942      0.00000
     30      32.8942      0.00000
     31      38.9032      0.00000
     32      38.9032      0.00000

 k-point   158 :      -0.3750    0.3750    0.3333
  band No.  band energies     occupation 
      1      -6.5374      2.00000
      2      -6.4130      2.00000
      3      -4.6214      2.00000
      4      -4.5990      2.00000
      5      -4.4711      2.00000
      6      -4.4328      2.00000
      7      -4.3464      2.00000
      8      -4.3118      2.00000
      9      -4.1415      2.00000
     10      -4.1303      2.00000
     11      -2.7879      2.00000
     12      -1.9653      2.00000
     13       2.9348      2.00000
     14       2.9464      2.00000
     15       2.9466      2.00000
     16       5.0676      2.00000
     17       6.5673      2.00000
     18       7.2683      2.00000
     19      14.1490      0.00000
     20      14.9009      0.00000
     21      19.3252      0.00000
     22      19.4083      0.00000
     23      19.7325      0.00000
     24      21.4142      0.00000
     25      22.7225      0.00000
     26      22.9349      0.00000
     27      26.9215      0.00000
     28      27.0234      0.00000
     29      32.4554      0.00000
     30      33.0894      0.00000
     31      36.3868      0.00000
     32      37.8174      0.00000

 k-point   159 :      -0.2500    0.3750    0.3333
  band No.  band energies     occupation 
      1      -6.5243      2.00000
      2      -6.2352      2.00000
      3      -4.6364      2.00000
      4      -4.6225      2.00000
      5      -4.5192      2.00000
      6      -4.5105      2.00000
      7      -4.4356      2.00000
      8      -4.4065      2.00000
      9      -4.1801      2.00000
     10      -4.1543      2.00000
     11      -3.6093      2.00000
     12      -2.6707      2.00000
     13       1.8640      2.00000
     14       2.7670      2.00000
     15       4.7264      2.00000
     16       6.2836      2.00000
     17       7.9995      2.00000
     18       8.0134      2.00000
     19      14.9527      0.00000
     20      15.8703      0.00000
     21      18.0964      0.00000
     22      18.8122      0.00000
     23      20.3265      0.00000
     24      21.2380      0.00000
     25      21.8207      0.00000
     26      22.1788      0.00000
     27      26.9214      0.00000
     28      28.2001      0.00000
     29      31.7938      0.00000
     30      32.9816      0.00000
     31      34.0292      0.00000
     32      34.2710      0.00000

 k-point   160 :      -0.1250    0.3750    0.3333
  band No.  band energies     occupation 
      1      -6.5300      2.00000
      2      -6.0362      2.00000
      3      -4.7195      2.00000
      4      -4.7029      2.00000
      5      -4.5867      2.00000
      6      -4.5828      2.00000
      7      -4.5156      2.00000
      8      -4.4285      2.00000
      9      -4.1857      2.00000
     10      -4.1491      2.00000
     11      -4.0747      2.00000
     12      -3.3461      2.00000
     13       1.2296      2.00000
     14       2.3094      2.00000
     15       6.7143      2.00000
     16       8.1611      2.00000
     17       8.3294      2.00000
     18       8.9411      2.00000
     19      16.0288      0.00000
     20      16.4985      0.00000
     21      17.0321      0.00000
     22      18.0798      0.00000
     23      20.8793      0.00000
     24      20.9093      0.00000
     25      20.9386      0.00000
     26      21.4575      0.00000
     27      27.1737      0.00000
     28      29.5179      0.00000
     29      30.3104      0.00000
     30      30.5706      0.00000
     31      33.1879      0.00000
     32      33.6524      0.00000

 k-point   161 :      -0.0000    0.5000    0.3333
  band No.  band energies     occupation 
      1      -5.8041      2.00000
      2      -5.8041      2.00000
      3      -4.8021      2.00000
      4      -4.8021      2.00000
      5      -4.6789      2.00000
      6      -4.6789      2.00000
      7      -4.5160      2.00000
      8      -4.5160      2.00000
      9      -4.1650      2.00000
     10      -4.1650      2.00000
     11      -4.0163      2.00000
     12      -4.0163      2.00000
     13       1.0178      2.00000
     14       1.0178      2.00000
     15       8.4465      2.00000
     16       8.4465      2.00000
     17       9.2958      2.00000
     18       9.2958      2.00000
     19      15.4173      0.00000
     20      15.4173      0.00000
     21      18.4444      0.00000
     22      18.4444      0.00000
     23      19.6679      0.00000
     24      19.6679      0.00000
     25      21.2187      0.00000
     26      21.2187      0.00000
     27      27.7864      0.00000
     28      27.7864      0.00000
     29      32.1692      0.00000
     30      32.1692      0.00000
     31      33.4074      0.00000
     32      33.4074      0.00000

 k-point   162 :       0.1250    0.5000    0.3333
  band No.  band energies     occupation 
      1      -5.9998      2.00000
      2      -5.9998      2.00000
      3      -4.7438      2.00000
      4      -4.7438      2.00000
      5      -4.6112      2.00000
      6      -4.6112      2.00000
      7      -4.4436      2.00000
      8      -4.4436      2.00000
      9      -4.1348      2.00000
     10      -4.1348      2.00000
     11      -3.7669      2.00000
     12      -3.7669      2.00000
     13       1.1875      2.00000
     14       1.1875      2.00000
     15       7.8489      2.00000
     16       7.8489      2.00000
     17       8.5762      2.00000
     18       8.5762      2.00000
     19      15.9036      0.00000
     20      15.9036      0.00000
     21      17.4587      0.00000
     22      17.4587      0.00000
     23      20.6137      0.00000
     24      20.6137      0.00000
     25      21.4530      0.00000
     26      21.4530      0.00000
     27      27.9966      0.00000
     28      27.9966      0.00000
     29      31.5879      0.00000
     30      31.5879      0.00000
     31      34.6141      0.00000
     32      34.6141      0.00000

 k-point   163 :       0.2500    0.5000    0.3333
  band No.  band energies     occupation 
      1      -6.3042      2.00000
      2      -6.3042      2.00000
      3      -4.6488      2.00000
      4      -4.6488      2.00000
      5      -4.4984      2.00000
      6      -4.4984      2.00000
      7      -4.3888      2.00000
      8      -4.3888      2.00000
      9      -4.1248      2.00000
     10      -4.1248      2.00000
     11      -2.9613      2.00000
     12      -2.9613      2.00000
     13       1.7003      2.00000
     14       1.7003      2.00000
     15       5.9397      2.00000
     16       5.9397      2.00000
     17       7.6613      2.00000
     18       7.6613      2.00000
     19      14.9263      0.00000
     20      14.9263      0.00000
     21      18.3619      0.00000
     22      18.3619      0.00000
     23      21.2674      0.00000
     24      21.2674      0.00000
     25      22.0631      0.00000
     26      22.0631      0.00000
     27      27.2534      0.00000
     28      27.2534      0.00000
     29      33.2110      0.00000
     30      33.2110      0.00000
     31      34.9124      0.00000
     32      34.9124      0.00000

 k-point   164 :       0.3750    0.5000    0.3333
  band No.  band energies     occupation 
      1      -6.5136      2.00000
      2      -6.5136      2.00000
      3      -4.6196      2.00000
      4      -4.6196      2.00000
      5      -4.4140      2.00000
      6      -4.4140      2.00000
      7      -4.3133      2.00000
      8      -4.3133      2.00000
      9      -4.0998      2.00000
     10      -4.0998      2.00000
     11      -1.9512      2.00000
     12      -1.9512      2.00000
     13       2.3838      2.00000
     14       2.3838      2.00000
     15       4.3370      2.00000
     16       4.3370      2.00000
     17       6.2410      2.00000
     18       6.2410      2.00000
     19      14.2869      0.00000
     20      14.2869      0.00000
     21      19.1716      0.00000
     22      19.1716      0.00000
     23      21.1329      0.00000
     24      21.1329      0.00000
     25      22.7689      0.00000
     26      22.7689      0.00000
     27      27.0570      0.00000
     28      27.0570      0.00000
     29      32.8942      0.00000
     30      32.8942      0.00000
     31      38.9032      0.00000
     32      38.9032      0.00000

 k-point   165 :       0.5000    0.5000    0.3333
  band No.  band energies     occupation 
      1      -6.5856      2.00000
      2      -6.5856      2.00000
      3      -4.6205      2.00000
      4      -4.6205      2.00000
      5      -4.3698      2.00000
      6      -4.3698      2.00000
      7      -4.3049      2.00000
      8      -4.3049      2.00000
      9      -4.0685      2.00000
     10      -4.0685      2.00000
     11      -1.3758      2.00000
     12      -1.3758      2.00000
     13       2.3956      2.00000
     14       2.3956      2.00000
     15       4.6034      2.00000
     16       4.6034      2.00000
     17       4.8467      2.00000
     18       4.8467      2.00000
     19      14.1687      0.00000
     20      14.1687      0.00000
     21      19.2302      0.00000
     22      19.2302      0.00000
     23      21.7479      0.00000
     24      21.7479      0.00000
     25      22.2151      0.00000
     26      22.2151      0.00000
     27      27.4059      0.00000
     28      27.4059      0.00000
     29      32.8557      0.00000
     30      32.8557      0.00000
     31      39.8534      0.00000
     32      39.8534      0.00000

 k-point   166 :      -0.3750    0.5000    0.3333
  band No.  band energies     occupation 
      1      -6.5136      2.00000
      2      -6.5136      2.00000
      3      -4.6196      2.00000
      4      -4.6196      2.00000
      5      -4.4140      2.00000
      6      -4.4140      2.00000
      7      -4.3133      2.00000
      8      -4.3133      2.00000
      9      -4.0998      2.00000
     10      -4.0998      2.00000
     11      -1.9512      2.00000
     12      -1.9512      2.00000
     13       2.3838      2.00000
     14       2.3838      2.00000
     15       4.3370      2.00000
     16       4.3370      2.00000
     17       6.2410      2.00000
     18       6.2410      2.00000
     19      14.2869      0.00000
     20      14.2869      0.00000
     21      19.1716      0.00000
     22      19.1716      0.00000
     23      21.1329      0.00000
     24      21.1329      0.00000
     25      22.7689      0.00000
     26      22.7689      0.00000
     27      27.0570      0.00000
     28      27.0570      0.00000
     29      32.8942      0.00000
     30      32.8942      0.00000
     31      38.9032      0.00000
     32      38.9032      0.00000

 k-point   167 :      -0.2500    0.5000    0.3333
  band No.  band energies     occupation 
      1      -6.3042      2.00000
      2      -6.3042      2.00000
      3      -4.6488      2.00000
      4      -4.6488      2.00000
      5      -4.4984      2.00000
      6      -4.4984      2.00000
      7      -4.3888      2.00000
      8      -4.3888      2.00000
      9      -4.1248      2.00000
     10      -4.1248      2.00000
     11      -2.9613      2.00000
     12      -2.9613      2.00000
     13       1.7003      2.00000
     14       1.7003      2.00000
     15       5.9397      2.00000
     16       5.9397      2.00000
     17       7.6613      2.00000
     18       7.6613      2.00000
     19      14.9263      0.00000
     20      14.9263      0.00000
     21      18.3619      0.00000
     22      18.3619      0.00000
     23      21.2674      0.00000
     24      21.2674      0.00000
     25      22.0631      0.00000
     26      22.0631      0.00000
     27      27.2534      0.00000
     28      27.2534      0.00000
     29      33.2110      0.00000
     30      33.2110      0.00000
     31      34.9124      0.00000
     32      34.9124      0.00000

 k-point   168 :      -0.1250    0.5000    0.3333
  band No.  band energies     occupation 
      1      -5.9998      2.00000
      2      -5.9998      2.00000
      3      -4.7438      2.00000
      4      -4.7438      2.00000
      5      -4.6112      2.00000
      6      -4.6112      2.00000
      7      -4.4436      2.00000
      8      -4.4436      2.00000
      9      -4.1348      2.00000
     10      -4.1348      2.00000
     11      -3.7669      2.00000
     12      -3.7669      2.00000
     13       1.1875      2.00000
     14       1.1875      2.00000
     15       7.8489      2.00000
     16       7.8489      2.00000
     17       8.5762      2.00000
     18       8.5762      2.00000
     19      15.9036      0.00000
     20      15.9036      0.00000
     21      17.4587      0.00000
     22      17.4587      0.00000
     23      20.6137      0.00000
     24      20.6137      0.00000
     25      21.4530      0.00000
     26      21.4530      0.00000
     27      27.9966      0.00000
     28      27.9966      0.00000
     29      31.5879      0.00000
     30      31.5879      0.00000
     31      34.6141      0.00000
     32      34.6141      0.00000

 k-point   169 :       0.0000   -0.3750    0.3333
  band No.  band energies     occupation 
      1      -6.5454      2.00000
      2      -5.9419      2.00000
      3      -4.7461      2.00000
      4      -4.6598      2.00000
      5      -4.6467      2.00000
      6      -4.6168      2.00000
      7      -4.6085      2.00000
      8      -4.4270      2.00000
      9      -4.2025      2.00000
     10      -4.1835      2.00000
     11      -4.1360      2.00000
     12      -3.6359      2.00000
     13       1.0243      2.00000
     14       2.1327      2.00000
     15       7.5513      2.00000
     16       8.6156      2.00000
     17       9.1056      2.00000
     18       9.3290      2.00000
     19      15.1933      0.00000
     20      15.8582      0.00000
     21      17.4717      0.00000
     22      19.9468      0.00000
     23      20.0728      0.00000
     24      20.5058      0.00000
     25      20.5557      0.00000
     26      21.5436      0.00000
     27      26.6242      0.00000
     28      28.3703      0.00000
     29      30.7249      0.00000
     30      31.4833      0.00000
     31      31.7614      0.00000
     32      34.0010      0.00000

 k-point   170 :       0.1250   -0.3750    0.3333
  band No.  band energies     occupation 
      1      -6.5300      2.00000
      2      -6.0362      2.00000
      3      -4.7195      2.00000
      4      -4.7029      2.00000
      5      -4.5867      2.00000
      6      -4.5828      2.00000
      7      -4.5156      2.00000
      8      -4.4285      2.00000
      9      -4.1857      2.00000
     10      -4.1491      2.00000
     11      -4.0747      2.00000
     12      -3.3461      2.00000
     13       1.2296      2.00000
     14       2.3094      2.00000
     15       6.7143      2.00000
     16       8.1611      2.00000
     17       8.3294      2.00000
     18       8.9411      2.00000
     19      16.0288      0.00000
     20      16.4985      0.00000
     21      17.0321      0.00000
     22      18.0798      0.00000
     23      20.8793      0.00000
     24      20.9093      0.00000
     25      20.9386      0.00000
     26      21.4575      0.00000
     27      27.1737      0.00000
     28      29.5179      0.00000
     29      30.3104      0.00000
     30      30.5706      0.00000
     31      33.1879      0.00000
     32      33.6524      0.00000

 k-point   171 :       0.2500   -0.3750    0.3333
  band No.  band energies     occupation 
      1      -6.5243      2.00000
      2      -6.2352      2.00000
      3      -4.6364      2.00000
      4      -4.6225      2.00000
      5      -4.5192      2.00000
      6      -4.5105      2.00000
      7      -4.4356      2.00000
      8      -4.4065      2.00000
      9      -4.1801      2.00000
     10      -4.1543      2.00000
     11      -3.6093      2.00000
     12      -2.6707      2.00000
     13       1.8640      2.00000
     14       2.7670      2.00000
     15       4.7264      2.00000
     16       6.2836      2.00000
     17       7.9995      2.00000
     18       8.0134      2.00000
     19      14.9527      0.00000
     20      15.8703      0.00000
     21      18.0964      0.00000
     22      18.8122      0.00000
     23      20.3265      0.00000
     24      21.2380      0.00000
     25      21.8207      0.00000
     26      22.1788      0.00000
     27      26.9214      0.00000
     28      28.2001      0.00000
     29      31.7938      0.00000
     30      32.9816      0.00000
     31      34.0292      0.00000
     32      34.2710      0.00000

 k-point   172 :       0.3750   -0.3750    0.3333
  band No.  band energies     occupation 
      1      -6.5374      2.00000
      2      -6.4130      2.00000
      3      -4.6214      2.00000
      4      -4.5990      2.00000
      5      -4.4711      2.00000
      6      -4.4328      2.00000
      7      -4.3464      2.00000
      8      -4.3118      2.00000
      9      -4.1415      2.00000
     10      -4.1303      2.00000
     11      -2.7879      2.00000
     12      -1.9653      2.00000
     13       2.9348      2.00000
     14       2.9464      2.00000
     15       2.9466      2.00000
     16       5.0676      2.00000
     17       6.5673      2.00000
     18       7.2683      2.00000
     19      14.1490      0.00000
     20      14.9009      0.00000
     21      19.3252      0.00000
     22      19.4083      0.00000
     23      19.7325      0.00000
     24      21.4142      0.00000
     25      22.7225      0.00000
     26      22.9349      0.00000
     27      26.9215      0.00000
     28      27.0234      0.00000
     29      32.4554      0.00000
     30      33.0894      0.00000
     31      36.3868      0.00000
     32      37.8174      0.00000

 k-point   173 :       0.5000   -0.3750    0.3333
  band No.  band energies     occupation 
      1      -6.5136      2.00000
      2      -6.5136      2.00000
      3      -4.6196      2.00000
      4      -4.6196      2.00000
      5      -4.4140      2.00000
      6      -4.4140      2.00000
      7      -4.3133      2.00000
      8      -4.3133      2.00000
      9      -4.0998      2.00000
     10      -4.0998      2.00000
     11      -1.9512      2.00000
     12      -1.9512      2.00000
     13       2.3838      2.00000
     14       2.3838      2.00000
     15       4.3370      2.00000
     16       4.3370      2.00000
     17       6.2410      2.00000
     18       6.2410      2.00000
     19      14.2869      0.00000
     20      14.2869      0.00000
     21      19.1716      0.00000
     22      19.1716      0.00000
     23      21.1329      0.00000
     24      21.1329      0.00000
     25      22.7689      0.00000
     26      22.7689      0.00000
     27      27.0570      0.00000
     28      27.0570      0.00000
     29      32.8942      0.00000
     30      32.8942      0.00000
     31      38.9032      0.00000
     32      38.9032      0.00000

 k-point   174 :      -0.3750   -0.3750    0.3333
  band No.  band energies     occupation 
      1      -6.5374      2.00000
      2      -6.4130      2.00000
      3      -4.6214      2.00000
      4      -4.5990      2.00000
      5      -4.4711      2.00000
      6      -4.4328      2.00000
      7      -4.3464      2.00000
      8      -4.3118      2.00000
      9      -4.1415      2.00000
     10      -4.1303      2.00000
     11      -2.7879      2.00000
     12      -1.9653      2.00000
     13       2.9348      2.00000
     14       2.9464      2.00000
     15       2.9466      2.00000
     16       5.0676      2.00000
     17       6.5673      2.00000
     18       7.2683      2.00000
     19      14.1490      0.00000
     20      14.9009      0.00000
     21      19.3252      0.00000
     22      19.4083      0.00000
     23      19.7325      0.00000
     24      21.4142      0.00000
     25      22.7225      0.00000
     26      22.9349      0.00000
     27      26.9215      0.00000
     28      27.0234      0.00000
     29      32.4554      0.00000
     30      33.0894      0.00000
     31      36.3868      0.00000
     32      37.8174      0.00000

 k-point   175 :      -0.2500   -0.3750    0.3333
  band No.  band energies     occupation 
      1      -6.5243      2.00000
      2      -6.2352      2.00000
      3      -4.6364      2.00000
      4      -4.6225      2.00000
      5      -4.5192      2.00000
      6      -4.5105      2.00000
      7      -4.4356      2.00000
      8      -4.4065      2.00000
      9      -4.1801      2.00000
     10      -4.1543      2.00000
     11      -3.6093      2.00000
     12      -2.6707      2.00000
     13       1.8640      2.00000
     14       2.7670      2.00000
     15       4.7264      2.00000
     16       6.2836      2.00000
     17       7.9995      2.00000
     18       8.0134      2.00000
     19      14.9527      0.00000
     20      15.8703      0.00000
     21      18.0964      0.00000
     22      18.8122      0.00000
     23      20.3265      0.00000
     24      21.2380      0.00000
     25      21.8207      0.00000
     26      22.1788      0.00000
     27      26.9214      0.00000
     28      28.2001      0.00000
     29      31.7938      0.00000
     30      32.9816      0.00000
     31      34.0292      0.00000
     32      34.2710      0.00000

 k-point   176 :      -0.1250   -0.3750    0.3333
  band No.  band energies     occupation 
      1      -6.5300      2.00000
      2      -6.0362      2.00000
      3      -4.7195      2.00000
      4      -4.7029      2.00000
      5      -4.5867      2.00000
      6      -4.5828      2.00000
      7      -4.5156      2.00000
      8      -4.4285      2.00000
      9      -4.1857      2.00000
     10      -4.1491      2.00000
     11      -4.0747      2.00000
     12      -3.3461      2.00000
     13       1.2296      2.00000
     14       2.3094      2.00000
     15       6.7143      2.00000
     16       8.1611      2.00000
     17       8.3294      2.00000
     18       8.9411      2.00000
     19      16.0288      0.00000
     20      16.4985      0.00000
     21      17.0321      0.00000
     22      18.0798      0.00000
     23      20.8793      0.00000
     24      20.9093      0.00000
     25      20.9386      0.00000
     26      21.4575      0.00000
     27      27.1737      0.00000
     28      29.5179      0.00000
     29      30.3104      0.00000
     30      30.5706      0.00000
     31      33.1879      0.00000
     32      33.6524      0.00000

 k-point   177 :       0.0000   -0.2500    0.3333
  band No.  band energies     occupation 
      1      -7.4651      2.00000
      2      -6.4587      2.00000
      3      -4.6469      2.00000
      4      -4.5934      2.00000
      5      -4.5455      2.00000
      6      -4.5455      2.00000
      7      -4.4790      2.00000
      8      -4.4097      2.00000
      9      -4.2718      2.00000
     10      -4.2403      2.00000
     11      -4.1238      2.00000
     12      -3.4945      2.00000
     13       2.2347      2.00000
     14       3.8822      2.00000
     15       6.8146      2.00000
     16       7.6922      2.00000
     17       8.8485      2.00000
     18       9.1926      2.00000
     19      14.9931      0.00000
     20      15.6128      0.00000
     21      18.2316      0.00000
     22      19.8573      0.00000
     23      20.9842      0.00000
     24      20.9958      0.00000
     25      21.5557      0.00000
     26      22.2427      0.00000
     27      26.4538      0.00000
     28      26.5345      0.00000
     29      28.5093      0.00000
     30      29.9378      0.00000
     31      33.4545      0.00000
     32      35.3624      0.00000

 k-point   178 :       0.1250   -0.2500    0.3333
  band No.  band energies     occupation 
      1      -7.3087      2.00000
      2      -6.3978      2.00000
      3      -4.6232      2.00000
      4      -4.6086      2.00000
      5      -4.5675      2.00000
      6      -4.5224      2.00000
      7      -4.5150      2.00000
      8      -4.4267      2.00000
      9      -4.3072      2.00000
     10      -4.1658      2.00000
     11      -4.1333      2.00000
     12      -3.3200      2.00000
     13       2.4440      2.00000
     14       3.9963      2.00000
     15       5.8575      2.00000
     16       7.5946      2.00000
     17       7.7419      2.00000
     18       9.4693      2.00000
     19      15.9277      0.00000
     20      16.3488      0.00000
     21      18.0459      0.00000
     22      19.3236      0.00000
     23      20.4453      0.00000
     24      20.4682      0.00000
     25      21.1523      0.00000
     26      22.1092      0.00000
     27      27.3239      0.00000
     28      27.5015      0.00000
     29      28.5324      0.00000
     30      31.3664      0.00000
     31      32.4953      0.00000
     32      34.7028      0.00000

 k-point   179 :       0.2500   -0.2500    0.3333
  band No.  band energies     occupation 
      1      -6.9188      2.00000
      2      -6.2827      2.00000
      3      -4.6141      2.00000
      4      -4.6023      2.00000
      5      -4.5524      2.00000
      6      -4.5120      2.00000
      7      -4.4939      2.00000
      8      -4.4902      2.00000
      9      -4.2826      2.00000
     10      -4.1803      2.00000
     11      -3.9561      2.00000
     12      -2.9568      2.00000
     13       2.7495      2.00000
     14       3.9210      2.00000
     15       4.3091      2.00000
     16       6.2423      2.00000
     17       7.9556      2.00000
     18       9.0127      2.00000
     19      15.9363      0.00000
     20      17.1329      0.00000
     21      17.9898      0.00000
     22      18.5776      0.00000
     23      19.7878      0.00000
     24      20.4278      0.00000
     25      21.7723      0.00000
     26      21.8028      0.00000
     27      26.7351      0.00000
     28      29.3282      0.00000
     29      30.1423      0.00000
     30      31.7308      0.00000
     31      32.6867      0.00000
     32      34.6740      0.00000

 k-point   180 :       0.3750   -0.2500    0.3333
  band No.  band energies     occupation 
      1      -6.5243      2.00000
      2      -6.2352      2.00000
      3      -4.6364      2.00000
      4      -4.6225      2.00000
      5      -4.5192      2.00000
      6      -4.5105      2.00000
      7      -4.4356      2.00000
      8      -4.4065      2.00000
      9      -4.1801      2.00000
     10      -4.1543      2.00000
     11      -3.6093      2.00000
     12      -2.6707      2.00000
     13       1.8640      2.00000
     14       2.7670      2.00000
     15       4.7264      2.00000
     16       6.2836      2.00000
     17       7.9995      2.00000
     18       8.0134      2.00000
     19      14.9527      0.00000
     20      15.8703      0.00000
     21      18.0964      0.00000
     22      18.8122      0.00000
     23      20.3265      0.00000
     24      21.2380      0.00000
     25      21.8207      0.00000
     26      22.1788      0.00000
     27      26.9214      0.00000
     28      28.2001      0.00000
     29      31.7938      0.00000
     30      32.9816      0.00000
     31      34.0292      0.00000
     32      34.2710      0.00000

 k-point   181 :       0.5000   -0.2500    0.3333
  band No.  band energies     occupation 
      1      -6.3042      2.00000
      2      -6.3042      2.00000
      3      -4.6488      2.00000
      4      -4.6488      2.00000
      5      -4.4984      2.00000
      6      -4.4984      2.00000
      7      -4.3888      2.00000
      8      -4.3888      2.00000
      9      -4.1248      2.00000
     10      -4.1248      2.00000
     11      -2.9613      2.00000
     12      -2.9613      2.00000
     13       1.7003      2.00000
     14       1.7003      2.00000
     15       5.9397      2.00000
     16       5.9397      2.00000
     17       7.6613      2.00000
     18       7.6613      2.00000
     19      14.9263      0.00000
     20      14.9263      0.00000
     21      18.3619      0.00000
     22      18.3619      0.00000
     23      21.2674      0.00000
     24      21.2674      0.00000
     25      22.0631      0.00000
     26      22.0631      0.00000
     27      27.2534      0.00000
     28      27.2534      0.00000
     29      33.2110      0.00000
     30      33.2110      0.00000
     31      34.9124      0.00000
     32      34.9124      0.00000

 k-point   182 :      -0.3750   -0.2500    0.3333
  band No.  band energies     occupation 
      1      -6.5243      2.00000
      2      -6.2352      2.00000
      3      -4.6364      2.00000
      4      -4.6225      2.00000
      5      -4.5192      2.00000
      6      -4.5105      2.00000
      7      -4.4356      2.00000
      8      -4.4065      2.00000
      9      -4.1801      2.00000
     10      -4.1543      2.00000
     11      -3.6093      2.00000
     12      -2.6707      2.00000
     13       1.8640      2.00000
     14       2.7670      2.00000
     15       4.7264      2.00000
     16       6.2836      2.00000
     17       7.9995      2.00000
     18       8.0134      2.00000
     19      14.9527      0.00000
     20      15.8703      0.00000
     21      18.0964      0.00000
     22      18.8122      0.00000
     23      20.3265      0.00000
     24      21.2380      0.00000
     25      21.8207      0.00000
     26      22.1788      0.00000
     27      26.9214      0.00000
     28      28.2001      0.00000
     29      31.7938      0.00000
     30      32.9816      0.00000
     31      34.0292      0.00000
     32      34.2710      0.00000

 k-point   183 :      -0.2500   -0.2500    0.3333
  band No.  band energies     occupation 
      1      -6.9188      2.00000
      2      -6.2827      2.00000
      3      -4.6141      2.00000
      4      -4.6023      2.00000
      5      -4.5524      2.00000
      6      -4.5120      2.00000
      7      -4.4939      2.00000
      8      -4.4902      2.00000
      9      -4.2826      2.00000
     10      -4.1803      2.00000
     11      -3.9561      2.00000
     12      -2.9568      2.00000
     13       2.7495      2.00000
     14       3.9210      2.00000
     15       4.3091      2.00000
     16       6.2423      2.00000
     17       7.9556      2.00000
     18       9.0127      2.00000
     19      15.9363      0.00000
     20      17.1329      0.00000
     21      17.9898      0.00000
     22      18.5776      0.00000
     23      19.7878      0.00000
     24      20.4278      0.00000
     25      21.7723      0.00000
     26      21.8028      0.00000
     27      26.7351      0.00000
     28      29.3282      0.00000
     29      30.1423      0.00000
     30      31.7308      0.00000
     31      32.6867      0.00000
     32      34.6740      0.00000

 k-point   184 :      -0.1250   -0.2500    0.3333
  band No.  band energies     occupation 
      1      -7.3087      2.00000
      2      -6.3978      2.00000
      3      -4.6232      2.00000
      4      -4.6086      2.00000
      5      -4.5675      2.00000
      6      -4.5224      2.00000
      7      -4.5150      2.00000
      8      -4.4267      2.00000
      9      -4.3072      2.00000
     10      -4.1658      2.00000
     11      -4.1333      2.00000
     12      -3.3200      2.00000
     13       2.4440      2.00000
     14       3.9963      2.00000
     15       5.8575      2.00000
     16       7.5946      2.00000
     17       7.7419      2.00000
     18       9.4693      2.00000
     19      15.9277      0.00000
     20      16.3488      0.00000
     21      18.0459      0.00000
     22      19.3236      0.00000
     23      20.4453      0.00000
     24      20.4682      0.00000
     25      21.1523      0.00000
     26      22.1092      0.00000
     27      27.3239      0.00000
     28      27.5015      0.00000
     29      28.5324      0.00000
     30      31.3664      0.00000
     31      32.4953      0.00000
     32      34.7028      0.00000

 k-point   185 :       0.0000   -0.1250    0.3333
  band No.  band energies     occupation 
      1      -8.1017      2.00000
      2      -6.8846      2.00000
      3      -4.6443      2.00000
      4      -4.5352      2.00000
      5      -4.5149      2.00000
      6      -4.4350      2.00000
      7      -4.3427      2.00000
      8      -4.3206      2.00000
      9      -4.2908      2.00000
     10      -4.2708      2.00000
     11      -4.1388      2.00000
     12      -3.6079      2.00000
     13       3.7539      2.00000
     14       5.8018      2.00000
     15       6.5407      2.00000
     16       6.9643      2.00000
     17       8.3339      2.00000
     18       8.7533      2.00000
     19      13.7212      0.00000
     20      15.7686      0.00000
     21      18.6487      0.00000
     22      20.1772      0.00000
     23      20.6211      0.00000
     24      21.0263      0.00000
     25      23.2202      0.00000
     26      23.9579      0.00000
     27      25.1424      0.00000
     28      25.2334      0.00000
     29      29.1385      0.00000
     30      30.1996      0.00000
     31      34.4494      0.00000
     32      35.5855      0.00000

 k-point   186 :       0.1250   -0.1250    0.3333
  band No.  band energies     occupation 
      1      -7.8928      2.00000
      2      -6.7476      2.00000
      3      -4.6185      2.00000
      4      -4.5387      2.00000
      5      -4.5255      2.00000
      6      -4.4790      2.00000
      7      -4.4309      2.00000
      8      -4.3699      2.00000
      9      -4.2802      2.00000
     10      -4.2029      2.00000
     11      -4.1892      2.00000
     12      -3.4944      2.00000
     13       3.5724      2.00000
     14       5.4513      2.00000
     15       5.9052      2.00000
     16       7.2261      2.00000
     17       7.5373      2.00000
     18       9.3499      2.00000
     19      14.5625      0.00000
     20      16.1419      0.00000
     21      19.0765      0.00000
     22      19.8359      0.00000
     23      20.2940      0.00000
     24      20.2980      0.00000
     25      22.3755      0.00000
     26      23.3639      0.00000
     27      25.9188      0.00000
     28      25.9268      0.00000
     29      29.0578      0.00000
     30      30.3454      0.00000
     31      34.5798      0.00000
     32      35.5824      0.00000

 k-point   187 :       0.2500   -0.1250    0.3333
  band No.  band energies     occupation 
      1      -7.3087      2.00000
      2      -6.3978      2.00000
      3      -4.6232      2.00000
      4      -4.6086      2.00000
      5      -4.5675      2.00000
      6      -4.5224      2.00000
      7      -4.5150      2.00000
      8      -4.4267      2.00000
      9      -4.3072      2.00000
     10      -4.1658      2.00000
     11      -4.1333      2.00000
     12      -3.3200      2.00000
     13       2.4440      2.00000
     14       3.9963      2.00000
     15       5.8575      2.00000
     16       7.5946      2.00000
     17       7.7419      2.00000
     18       9.4693      2.00000
     19      15.9277      0.00000
     20      16.3488      0.00000
     21      18.0459      0.00000
     22      19.3236      0.00000
     23      20.4453      0.00000
     24      20.4682      0.00000
     25      21.1523      0.00000
     26      22.1092      0.00000
     27      27.3239      0.00000
     28      27.5015      0.00000
     29      28.5324      0.00000
     30      31.3664      0.00000
     31      32.4953      0.00000
     32      34.7028      0.00000

 k-point   188 :       0.3750   -0.1250    0.3333
  band No.  band energies     occupation 
      1      -6.5300      2.00000
      2      -6.0362      2.00000
      3      -4.7195      2.00000
      4      -4.7029      2.00000
      5      -4.5867      2.00000
      6      -4.5828      2.00000
      7      -4.5156      2.00000
      8      -4.4285      2.00000
      9      -4.1857      2.00000
     10      -4.1491      2.00000
     11      -4.0747      2.00000
     12      -3.3461      2.00000
     13       1.2296      2.00000
     14       2.3094      2.00000
     15       6.7143      2.00000
     16       8.1611      2.00000
     17       8.3294      2.00000
     18       8.9411      2.00000
     19      16.0288      0.00000
     20      16.4985      0.00000
     21      17.0321      0.00000
     22      18.0798      0.00000
     23      20.8793      0.00000
     24      20.9093      0.00000
     25      20.9386      0.00000
     26      21.4575      0.00000
     27      27.1737      0.00000
     28      29.5179      0.00000
     29      30.3104      0.00000
     30      30.5706      0.00000
     31      33.1879      0.00000
     32      33.6524      0.00000

 k-point   189 :       0.5000   -0.1250    0.3333
  band No.  band energies     occupation 
      1      -5.9998      2.00000
      2      -5.9998      2.00000
      3      -4.7438      2.00000
      4      -4.7438      2.00000
      5      -4.6112      2.00000
      6      -4.6112      2.00000
      7      -4.4436      2.00000
      8      -4.4436      2.00000
      9      -4.1348      2.00000
     10      -4.1348      2.00000
     11      -3.7669      2.00000
     12      -3.7669      2.00000
     13       1.1875      2.00000
     14       1.1875      2.00000
     15       7.8489      2.00000
     16       7.8489      2.00000
     17       8.5762      2.00000
     18       8.5762      2.00000
     19      15.9036      0.00000
     20      15.9036      0.00000
     21      17.4587      0.00000
     22      17.4587      0.00000
     23      20.6137      0.00000
     24      20.6137      0.00000
     25      21.4530      0.00000
     26      21.4530      0.00000
     27      27.9966      0.00000
     28      27.9966      0.00000
     29      31.5879      0.00000
     30      31.5879      0.00000
     31      34.6141      0.00000
     32      34.6141      0.00000

 k-point   190 :      -0.3750   -0.1250    0.3333
  band No.  band energies     occupation 
      1      -6.5300      2.00000
      2      -6.0362      2.00000
      3      -4.7195      2.00000
      4      -4.7029      2.00000
      5      -4.5867      2.00000
      6      -4.5828      2.00000
      7      -4.5156      2.00000
      8      -4.4285      2.00000
      9      -4.1857      2.00000
     10      -4.1491      2.00000
     11      -4.0747      2.00000
     12      -3.3461      2.00000
     13       1.2296      2.00000
     14       2.3094      2.00000
     15       6.7143      2.00000
     16       8.1611      2.00000
     17       8.3294      2.00000
     18       8.9411      2.00000
     19      16.0288      0.00000
     20      16.4985      0.00000
     21      17.0321      0.00000
     22      18.0798      0.00000
     23      20.8793      0.00000
     24      20.9093      0.00000
     25      20.9386      0.00000
     26      21.4575      0.00000
     27      27.1737      0.00000
     28      29.5179      0.00000
     29      30.3104      0.00000
     30      30.5706      0.00000
     31      33.1879      0.00000
     32      33.6524      0.00000

 k-point   191 :      -0.2500   -0.1250    0.3333
  band No.  band energies     occupation 
      1      -7.3087      2.00000
      2      -6.3978      2.00000
      3      -4.6232      2.00000
      4      -4.6086      2.00000
      5      -4.5675      2.00000
      6      -4.5224      2.00000
      7      -4.5150      2.00000
      8      -4.4267      2.00000
      9      -4.3072      2.00000
     10      -4.1658      2.00000
     11      -4.1333      2.00000
     12      -3.3200      2.00000
     13       2.4440      2.00000
     14       3.9963      2.00000
     15       5.8575      2.00000
     16       7.5946      2.00000
     17       7.7419      2.00000
     18       9.4693      2.00000
     19      15.9277      0.00000
     20      16.3488      0.00000
     21      18.0459      0.00000
     22      19.3236      0.00000
     23      20.4453      0.00000
     24      20.4682      0.00000
     25      21.1523      0.00000
     26      22.1092      0.00000
     27      27.3239      0.00000
     28      27.5015      0.00000
     29      28.5324      0.00000
     30      31.3664      0.00000
     31      32.4953      0.00000
     32      34.7028      0.00000

 k-point   192 :      -0.1250   -0.1250    0.3333
  band No.  band energies     occupation 
      1      -7.8928      2.00000
      2      -6.7476      2.00000
      3      -4.6185      2.00000
      4      -4.5387      2.00000
      5      -4.5255      2.00000
      6      -4.4790      2.00000
      7      -4.4309      2.00000
      8      -4.3699      2.00000
      9      -4.2802      2.00000
     10      -4.2029      2.00000
     11      -4.1892      2.00000
     12      -3.4944      2.00000
     13       3.5724      2.00000
     14       5.4513      2.00000
     15       5.9052      2.00000
     16       7.2261      2.00000
     17       7.5373      2.00000
     18       9.3499      2.00000
     19      14.5625      0.00000
     20      16.1419      0.00000
     21      19.0765      0.00000
     22      19.8359      0.00000
     23      20.2940      0.00000
     24      20.2980      0.00000
     25      22.3755      0.00000
     26      23.3639      0.00000
     27      25.9188      0.00000
     28      25.9268      0.00000
     29      29.0578      0.00000
     30      30.3454      0.00000
     31      34.5798      0.00000
     32      35.5824      0.00000

 k-point   193 :       0.0000    0.0000    0.5000
  band No.  band energies     occupation 
      1      -7.5768      2.00000
      2      -7.5768      2.00000
      3      -4.5945      2.00000
      4      -4.5945      2.00000
      5      -4.4009      2.00000
      6      -4.4009      2.00000
      7      -4.2949      2.00000
      8      -4.2949      2.00000
      9      -4.2949      2.00000
     10      -4.2949      2.00000
     11      -4.2473      2.00000
     12      -4.2473      2.00000
     13       5.8022      2.00000
     14       5.8022      2.00000
     15       7.4048      2.00000
     16       7.4048      2.00000
     17       7.4048      2.00000
     18       7.4048      2.00000
     19      15.2213      0.00000
     20      15.2213      0.00000
     21      19.4020      0.00000
     22      19.4020      0.00000
     23      19.7020      0.00000
     24      19.7020      0.00000
     25      24.1209      0.00000
     26      24.1209      0.00000
     27      24.1209      0.00000
     28      24.1209      0.00000
     29      34.2714      0.00000
     30      34.2714      0.00000
     31      34.9602      0.00000
     32      34.9602      0.00000

 k-point   194 :       0.1250   -0.0000    0.5000
  band No.  band energies     occupation 
      1      -7.3724      2.00000
      2      -7.3724      2.00000
      3      -4.5901      2.00000
      4      -4.5901      2.00000
      5      -4.4939      2.00000
      6      -4.4939      2.00000
      7      -4.3886      2.00000
      8      -4.3886      2.00000
      9      -4.2043      2.00000
     10      -4.2043      2.00000
     11      -4.2005      2.00000
     12      -4.2005      2.00000
     13       4.7373      2.00000
     14       4.7373      2.00000
     15       7.6487      2.00000
     16       7.6487      2.00000
     17       7.8540      2.00000
     18       7.8540      2.00000
     19      15.7207      0.00000
     20      15.7207      0.00000
     21      18.8656      0.00000
     22      18.8656      0.00000
     23      19.9066      0.00000
     24      19.9066      0.00000
     25      23.3419      0.00000
     26      23.3419      0.00000
     27      24.9051      0.00000
     28      24.9051      0.00000
     29      32.5273      0.00000
     30      32.5273      0.00000
     31      33.1345      0.00000
     32      33.1345      0.00000

 k-point   195 :       0.2500   -0.0000    0.5000
  band No.  band energies     occupation 
      1      -6.7950      2.00000
      2      -6.7950      2.00000
      3      -4.6677      2.00000
      4      -4.6677      2.00000
      5      -4.5324      2.00000
      6      -4.5324      2.00000
      7      -4.5190      2.00000
      8      -4.5190      2.00000
      9      -4.1664      2.00000
     10      -4.1664      2.00000
     11      -4.1263      2.00000
     12      -4.1263      2.00000
     13       2.8836      2.00000
     14       2.8836      2.00000
     15       8.2849      2.00000
     16       8.2849      2.00000
     17       8.4797      2.00000
     18       8.4797      2.00000
     19      16.1481      0.00000
     20      16.1481      0.00000
     21      18.0066      0.00000
     22      18.0066      0.00000
     23      20.7480      0.00000
     24      20.7480      0.00000
     25      21.6164      0.00000
     26      21.6164      0.00000
     27      26.5229      0.00000
     28      26.5229      0.00000
     29      30.4828      0.00000
     30      30.4828      0.00000
     31      33.0334      0.00000
     32      33.0334      0.00000

 k-point   196 :       0.3750   -0.0000    0.5000
  band No.  band energies     occupation 
      1      -5.9854      2.00000
      2      -5.9854      2.00000
      3      -4.7653      2.00000
      4      -4.7653      2.00000
      5      -4.6550      2.00000
      6      -4.6550      2.00000
      7      -4.5705      2.00000
      8      -4.5705      2.00000
      9      -4.1486      2.00000
     10      -4.1486      2.00000
     11      -4.1241      2.00000
     12      -4.1241      2.00000
     13       1.2859      2.00000
     14       1.2859      2.00000
     15       9.0163      2.00000
     16       9.0163      2.00000
     17       9.0745      2.00000
     18       9.0745      2.00000
     19      15.2667      0.00000
     20      15.2667      0.00000
     21      18.6560      0.00000
     22      18.6560      0.00000
     23      20.0023      0.00000
     24      20.0023      0.00000
     25      20.9835      0.00000
     26      20.9835      0.00000
     27      27.1989      0.00000
     28      27.1989      0.00000
     29      31.5664      0.00000
     30      31.5664      0.00000
     31      33.7545      0.00000
     32      33.7545      0.00000

 k-point   197 :       0.5000   -0.0000    0.5000
  band No.  band energies     occupation 
      1      -5.4121      2.00000
      2      -5.4121      2.00000
      3      -4.8642      2.00000
      4      -4.8642      2.00000
      5      -4.7028      2.00000
      6      -4.7028      2.00000
      7      -4.7028      2.00000
      8      -4.7028      2.00000
      9      -4.1430      2.00000
     10      -4.1430      2.00000
     11      -4.1429      2.00000
     12      -4.1429      2.00000
     13       0.6329      2.00000
     14       0.6329      2.00000
     15       9.3607      2.00000
     16       9.3607      2.00000
     17       9.3609      2.00000
     18       9.3609      2.00000
     19      14.7457      0.00000
     20      14.7457      0.00000
     21      19.3360      0.00000
     22      19.3360      0.00000
     23      19.3370      0.00000
     24      19.3370      0.00000
     25      20.6274      0.00000
     26      20.6274      0.00000
     27      27.1006      0.00000
     28      27.1006      0.00000
     29      34.4813      0.00000
     30      34.4813      0.00000
     31      34.4814      0.00000
     32      34.4814      0.00000

 k-point   198 :      -0.3750    0.0000    0.5000
  band No.  band energies     occupation 
      1      -5.9854      2.00000
      2      -5.9854      2.00000
      3      -4.7653      2.00000
      4      -4.7653      2.00000
      5      -4.6550      2.00000
      6      -4.6550      2.00000
      7      -4.5705      2.00000
      8      -4.5705      2.00000
      9      -4.1486      2.00000
     10      -4.1486      2.00000
     11      -4.1241      2.00000
     12      -4.1241      2.00000
     13       1.2859      2.00000
     14       1.2859      2.00000
     15       9.0163      2.00000
     16       9.0163      2.00000
     17       9.0745      2.00000
     18       9.0745      2.00000
     19      15.2667      0.00000
     20      15.2667      0.00000
     21      18.6560      0.00000
     22      18.6560      0.00000
     23      20.0023      0.00000
     24      20.0023      0.00000
     25      20.9835      0.00000
     26      20.9835      0.00000
     27      27.1989      0.00000
     28      27.1989      0.00000
     29      31.5664      0.00000
     30      31.5664      0.00000
     31      33.7545      0.00000
     32      33.7545      0.00000

 k-point   199 :      -0.2500    0.0000    0.5000
  band No.  band energies     occupation 
      1      -6.7950      2.00000
      2      -6.7950      2.00000
      3      -4.6677      2.00000
      4      -4.6677      2.00000
      5      -4.5324      2.00000
      6      -4.5324      2.00000
      7      -4.5190      2.00000
      8      -4.5190      2.00000
      9      -4.1664      2.00000
     10      -4.1664      2.00000
     11      -4.1263      2.00000
     12      -4.1263      2.00000
     13       2.8836      2.00000
     14       2.8836      2.00000
     15       8.2849      2.00000
     16       8.2849      2.00000
     17       8.4797      2.00000
     18       8.4797      2.00000
     19      16.1481      0.00000
     20      16.1481      0.00000
     21      18.0066      0.00000
     22      18.0066      0.00000
     23      20.7480      0.00000
     24      20.7480      0.00000
     25      21.6164      0.00000
     26      21.6164      0.00000
     27      26.5229      0.00000
     28      26.5229      0.00000
     29      30.4828      0.00000
     30      30.4828      0.00000
     31      33.0334      0.00000
     32      33.0334      0.00000

 k-point   200 :      -0.1250    0.0000    0.5000
  band No.  band energies     occupation 
      1      -7.3724      2.00000
      2      -7.3724      2.00000
      3      -4.5901      2.00000
      4      -4.5901      2.00000
      5      -4.4939      2.00000
      6      -4.4939      2.00000
      7      -4.3886      2.00000
      8      -4.3886      2.00000
      9      -4.2043      2.00000
     10      -4.2043      2.00000
     11      -4.2005      2.00000
     12      -4.2005      2.00000
     13       4.7373      2.00000
     14       4.7373      2.00000
     15       7.6487      2.00000
     16       7.6487      2.00000
     17       7.8540      2.00000
     18       7.8540      2.00000
     19      15.7207      0.00000
     20      15.7207      0.00000
     21      18.8656      0.00000
     22      18.8656      0.00000
     23      19.9066      0.00000
     24      19.9066      0.00000
     25      23.3419      0.00000
     26      23.3419      0.00000
     27      24.9051      0.00000
     28      24.9051      0.00000
     29      32.5273      0.00000
     30      32.5273      0.00000
     31      33.1345      0.00000
     32      33.1345      0.00000

 k-point   201 :      -0.0000    0.1250    0.5000
  band No.  band energies     occupation 
      1      -7.3724      2.00000
      2      -7.3724      2.00000
      3      -4.5901      2.00000
      4      -4.5901      2.00000
      5      -4.4939      2.00000
      6      -4.4939      2.00000
      7      -4.3886      2.00000
      8      -4.3886      2.00000
      9      -4.2043      2.00000
     10      -4.2043      2.00000
     11      -4.2005      2.00000
     12      -4.2005      2.00000
     13       4.7373      2.00000
     14       4.7373      2.00000
     15       7.6487      2.00000
     16       7.6487      2.00000
     17       7.8540      2.00000
     18       7.8540      2.00000
     19      15.7207      0.00000
     20      15.7207      0.00000
     21      18.8656      0.00000
     22      18.8656      0.00000
     23      19.9066      0.00000
     24      19.9066      0.00000
     25      23.3419      0.00000
     26      23.3419      0.00000
     27      24.9051      0.00000
     28      24.9051      0.00000
     29      32.5273      0.00000
     30      32.5273      0.00000
     31      33.1345      0.00000
     32      33.1345      0.00000

 k-point   202 :       0.1250    0.1250    0.5000
  band No.  band energies     occupation 
      1      -7.1853      2.00000
      2      -7.1853      2.00000
      3      -4.5700      2.00000
      4      -4.5700      2.00000
      5      -4.5532      2.00000
      6      -4.5532      2.00000
      7      -4.4296      2.00000
      8      -4.4296      2.00000
      9      -4.2895      2.00000
     10      -4.2895      2.00000
     11      -4.0552      2.00000
     12      -4.0552      2.00000
     13       4.4342      2.00000
     14       4.4342      2.00000
     15       6.7008      2.00000
     16       6.7008      2.00000
     17       8.6420      2.00000
     18       8.6420      2.00000
     19      16.3649      0.00000
     20      16.3649      0.00000
     21      18.6532      0.00000
     22      18.6532      0.00000
     23      19.6280      0.00000
     24      19.6280      0.00000
     25      22.6462      0.00000
     26      22.6462      0.00000
     27      25.6752      0.00000
     28      25.6752      0.00000
     29      32.3625      0.00000
     30      32.3625      0.00000
     31      32.7620      0.00000
     32      32.7620      0.00000

 k-point   203 :       0.2500    0.1250    0.5000
  band No.  band energies     occupation 
      1      -6.6761      2.00000
      2      -6.6761      2.00000
      3      -4.6628      2.00000
      4      -4.6628      2.00000
      5      -4.5707      2.00000
      6      -4.5707      2.00000
      7      -4.5170      2.00000
      8      -4.5170      2.00000
      9      -4.2496      2.00000
     10      -4.2496      2.00000
     11      -3.9372      2.00000
     12      -3.9372      2.00000
     13       3.0459      2.00000
     14       3.0459      2.00000
     15       6.7578      2.00000
     16       6.7578      2.00000
     17       9.1374      2.00000
     18       9.1374      2.00000
     19      16.9421      0.00000
     20      16.9421      0.00000
     21      17.7835      0.00000
     22      17.7835      0.00000
     23      20.3826      0.00000
     24      20.3826      0.00000
     25      21.1118      0.00000
     26      21.1118      0.00000
     27      27.6186      0.00000
     28      27.6186      0.00000
     29      30.6076      0.00000
     30      30.6076      0.00000
     31      32.8570      0.00000
     32      32.8570      0.00000

 k-point   204 :       0.3750    0.1250    0.5000
  band No.  band energies     occupation 
      1      -6.0510      2.00000
      2      -6.0510      2.00000
      3      -4.7621      2.00000
      4      -4.7621      2.00000
      5      -4.6527      2.00000
      6      -4.6527      2.00000
      7      -4.4737      2.00000
      8      -4.4737      2.00000
      9      -4.1893      2.00000
     10      -4.1893      2.00000
     11      -3.8757      2.00000
     12      -3.8757      2.00000
     13       1.4881      2.00000
     14       1.4881      2.00000
     15       7.5518      2.00000
     16       7.5518      2.00000
     17       9.2327      2.00000
     18       9.2327      2.00000
     19      16.0045      0.00000
     20      16.0045      0.00000
     21      18.0238      0.00000
     22      18.0238      0.00000
     23      20.0284      0.00000
     24      20.0284      0.00000
     25      21.2068      0.00000
     26      21.2068      0.00000
     27      28.7165      0.00000
     28      28.7165      0.00000
     29      30.8577      0.00000
     30      30.8577      0.00000
     31      32.8180      0.00000
     32      32.8180      0.00000

 k-point   205 :       0.5000    0.1250    0.5000
  band No.  band energies     occupation 
      1      -5.7453      2.00000
      2      -5.7453      2.00000
      3      -4.8023      2.00000
      4      -4.8023      2.00000
      5      -4.6586      2.00000
      6      -4.6586      2.00000
      7      -4.4624      2.00000
      8      -4.4624      2.00000
      9      -4.1440      2.00000
     10      -4.1440      2.00000
     11      -3.8714      2.00000
     12      -3.8714      2.00000
     13       0.8115      2.00000
     14       0.8115      2.00000
     15       8.2032      2.00000
     16       8.2032      2.00000
     17       8.9611      2.00000
     18       8.9611      2.00000
     19      15.6970      0.00000
     20      15.6970      0.00000
     21      17.7665      0.00000
     22      17.7665      0.00000
     23      19.9660      0.00000
     24      19.9660      0.00000
     25      21.4519      0.00000
     26      21.4519      0.00000
     27      28.2380      0.00000
     28      28.2380      0.00000
     29      32.1952      0.00000
     30      32.1952      0.00000
     31      33.7180      0.00000
     32      33.7180      0.00000

 k-point   206 :      -0.3750    0.1250    0.5000
  band No.  band energies     occupation 
      1      -6.0510      2.00000
      2      -6.0510      2.00000
      3      -4.7621      2.00000
      4      -4.7621      2.00000
      5      -4.6527      2.00000
      6      -4.6527      2.00000
      7      -4.4737      2.00000
      8      -4.4737      2.00000
      9      -4.1893      2.00000
     10      -4.1893      2.00000
     11      -3.8757      2.00000
     12      -3.8757      2.00000
     13       1.4881      2.00000
     14       1.4881      2.00000
     15       7.5518      2.00000
     16       7.5518      2.00000
     17       9.2327      2.00000
     18       9.2327      2.00000
     19      16.0045      0.00000
     20      16.0045      0.00000
     21      18.0238      0.00000
     22      18.0238      0.00000
     23      20.0284      0.00000
     24      20.0284      0.00000
     25      21.2068      0.00000
     26      21.2068      0.00000
     27      28.7165      0.00000
     28      28.7165      0.00000
     29      30.8577      0.00000
     30      30.8577      0.00000
     31      32.8180      0.00000
     32      32.8180      0.00000

 k-point   207 :      -0.2500    0.1250    0.5000
  band No.  band energies     occupation 
      1      -6.6761      2.00000
      2      -6.6761      2.00000
      3      -4.6628      2.00000
      4      -4.6628      2.00000
      5      -4.5707      2.00000
      6      -4.5707      2.00000
      7      -4.5170      2.00000
      8      -4.5170      2.00000
      9      -4.2496      2.00000
     10      -4.2496      2.00000
     11      -3.9372      2.00000
     12      -3.9372      2.00000
     13       3.0459      2.00000
     14       3.0459      2.00000
     15       6.7578      2.00000
     16       6.7578      2.00000
     17       9.1374      2.00000
     18       9.1374      2.00000
     19      16.9421      0.00000
     20      16.9421      0.00000
     21      17.7835      0.00000
     22      17.7835      0.00000
     23      20.3826      0.00000
     24      20.3826      0.00000
     25      21.1118      0.00000
     26      21.1118      0.00000
     27      27.6186      0.00000
     28      27.6186      0.00000
     29      30.6076      0.00000
     30      30.6076      0.00000
     31      32.8570      0.00000
     32      32.8570      0.00000

 k-point   208 :      -0.1250    0.1250    0.5000
  band No.  band energies     occupation 
      1      -7.1853      2.00000
      2      -7.1853      2.00000
      3      -4.5700      2.00000
      4      -4.5700      2.00000
      5      -4.5532      2.00000
      6      -4.5532      2.00000
      7      -4.4296      2.00000
      8      -4.4296      2.00000
      9      -4.2895      2.00000
     10      -4.2895      2.00000
     11      -4.0552      2.00000
     12      -4.0552      2.00000
     13       4.4342      2.00000
     14       4.4342      2.00000
     15       6.7008      2.00000
     16       6.7008      2.00000
     17       8.6420      2.00000
     18       8.6420      2.00000
     19      16.3649      0.00000
     20      16.3649      0.00000
     21      18.6532      0.00000
     22      18.6532      0.00000
     23      19.6280      0.00000
     24      19.6280      0.00000
     25      22.6462      0.00000
     26      22.6462      0.00000
     27      25.6752      0.00000
     28      25.6752      0.00000
     29      32.3625      0.00000
     30      32.3625      0.00000
     31      32.7620      0.00000
     32      32.7620      0.00000

 k-point   209 :      -0.0000    0.2500    0.5000
  band No.  band energies     occupation 
      1      -6.7950      2.00000
      2      -6.7950      2.00000
      3      -4.6677      2.00000
      4      -4.6677      2.00000
      5      -4.5324      2.00000
      6      -4.5324      2.00000
      7      -4.5190      2.00000
      8      -4.5190      2.00000
      9      -4.1664      2.00000
     10      -4.1664      2.00000
     11      -4.1263      2.00000
     12      -4.1263      2.00000
     13       2.8836      2.00000
     14       2.8836      2.00000
     15       8.2849      2.00000
     16       8.2849      2.00000
     17       8.4797      2.00000
     18       8.4797      2.00000
     19      16.1481      0.00000
     20      16.1481      0.00000
     21      18.0066      0.00000
     22      18.0066      0.00000
     23      20.7480      0.00000
     24      20.7480      0.00000
     25      21.6164      0.00000
     26      21.6164      0.00000
     27      26.5229      0.00000
     28      26.5229      0.00000
     29      30.4828      0.00000
     30      30.4828      0.00000
     31      33.0334      0.00000
     32      33.0334      0.00000

 k-point   210 :       0.1250    0.2500    0.5000
  band No.  band energies     occupation 
      1      -6.6761      2.00000
      2      -6.6761      2.00000
      3      -4.6628      2.00000
      4      -4.6628      2.00000
      5      -4.5707      2.00000
      6      -4.5707      2.00000
      7      -4.5170      2.00000
      8      -4.5170      2.00000
      9      -4.2496      2.00000
     10      -4.2496      2.00000
     11      -3.9372      2.00000
     12      -3.9372      2.00000
     13       3.0459      2.00000
     14       3.0459      2.00000
     15       6.7578      2.00000
     16       6.7578      2.00000
     17       9.1374      2.00000
     18       9.1374      2.00000
     19      16.9421      0.00000
     20      16.9421      0.00000
     21      17.7835      0.00000
     22      17.7835      0.00000
     23      20.3826      0.00000
     24      20.3826      0.00000
     25      21.1118      0.00000
     26      21.1118      0.00000
     27      27.6186      0.00000
     28      27.6186      0.00000
     29      30.6076      0.00000
     30      30.6076      0.00000
     31      32.8570      0.00000
     32      32.8570      0.00000

 k-point   211 :       0.2500    0.2500    0.5000
  band No.  band energies     occupation 
      1      -6.4099      2.00000
      2      -6.4099      2.00000
      3      -4.6533      2.00000
      4      -4.6533      2.00000
      5      -4.5892      2.00000
      6      -4.5892      2.00000
      7      -4.5142      2.00000
      8      -4.5142      2.00000
      9      -4.2491      2.00000
     10      -4.2491      2.00000
     11      -3.6509      2.00000
     12      -3.6509      2.00000
     13       3.1405      2.00000
     14       3.1405      2.00000
     15       5.2300      2.00000
     16       5.2300      2.00000
     17       9.1112      2.00000
     18       9.1112      2.00000
     19      16.6441      0.00000
     20      16.6441      0.00000
     21      18.4371      0.00000
     22      18.4371      0.00000
     23      20.1441      0.00000
     24      20.1441      0.00000
     25      20.8788      0.00000
     26      20.8788      0.00000
     27      28.7731      0.00000
     28      28.7731      0.00000
     29      31.7677      0.00000
     30      31.7677      0.00000
     31      31.8178      0.00000
     32      31.8178      0.00000

 k-point   212 :       0.3750    0.2500    0.5000
  band No.  band energies     occupation 
      1      -6.2018      2.00000
      2      -6.2018      2.00000
      3      -4.6659      2.00000
      4      -4.6659      2.00000
      5      -4.5541      2.00000
      6      -4.5541      2.00000
      7      -4.4630      2.00000
      8      -4.4630      2.00000
      9      -4.1853      2.00000
     10      -4.1853      2.00000
     11      -3.2607      2.00000
     12      -3.2607      2.00000
     13       2.0806      2.00000
     14       2.0806      2.00000
     15       5.4692      2.00000
     16       5.4692      2.00000
     17       8.4280      2.00000
     18       8.4280      2.00000
     19      16.1797      0.00000
     20      16.1797      0.00000
     21      17.9569      0.00000
     22      17.9569      0.00000
     23      20.8153      0.00000
     24      20.8153      0.00000
     25      21.3068      0.00000
     26      21.3068      0.00000
     27      29.5668      0.00000
     28      29.5668      0.00000
     29      30.5377      0.00000
     30      30.5377      0.00000
     31      33.1640      0.00000
     32      33.1640      0.00000

 k-point   213 :       0.5000    0.2500    0.5000
  band No.  band energies     occupation 
      1      -6.1394      2.00000
      2      -6.1394      2.00000
      3      -4.6807      2.00000
      4      -4.6807      2.00000
      5      -4.5342      2.00000
      6      -4.5342      2.00000
      7      -4.4304      2.00000
      8      -4.4304      2.00000
      9      -4.1390      2.00000
     10      -4.1390      2.00000
     11      -2.9922      2.00000
     12      -2.9922      2.00000
     13       1.3812      2.00000
     14       1.3812      2.00000
     15       6.1191      2.00000
     16       6.1191      2.00000
     17       7.7381      2.00000
     18       7.7381      2.00000
     19      16.3375      0.00000
     20      16.3375      0.00000
     21      17.2884      0.00000
     22      17.2884      0.00000
     23      21.3655      0.00000
     24      21.3655      0.00000
     25      21.3913      0.00000
     26      21.3913      0.00000
     27      29.7833      0.00000
     28      29.7833      0.00000
     29      29.9131      0.00000
     30      29.9131      0.00000
     31      34.7664      0.00000
     32      34.7664      0.00000

 k-point   214 :      -0.3750    0.2500    0.5000
  band No.  band energies     occupation 
      1      -6.2018      2.00000
      2      -6.2018      2.00000
      3      -4.6659      2.00000
      4      -4.6659      2.00000
      5      -4.5541      2.00000
      6      -4.5541      2.00000
      7      -4.4630      2.00000
      8      -4.4630      2.00000
      9      -4.1853      2.00000
     10      -4.1853      2.00000
     11      -3.2607      2.00000
     12      -3.2607      2.00000
     13       2.0806      2.00000
     14       2.0806      2.00000
     15       5.4692      2.00000
     16       5.4692      2.00000
     17       8.4280      2.00000
     18       8.4280      2.00000
     19      16.1797      0.00000
     20      16.1797      0.00000
     21      17.9569      0.00000
     22      17.9569      0.00000
     23      20.8153      0.00000
     24      20.8153      0.00000
     25      21.3068      0.00000
     26      21.3068      0.00000
     27      29.5668      0.00000
     28      29.5668      0.00000
     29      30.5377      0.00000
     30      30.5377      0.00000
     31      33.1640      0.00000
     32      33.1640      0.00000

 k-point   215 :      -0.2500    0.2500    0.5000
  band No.  band energies     occupation 
      1      -6.4099      2.00000
      2      -6.4099      2.00000
      3      -4.6533      2.00000
      4      -4.6533      2.00000
      5      -4.5892      2.00000
      6      -4.5892      2.00000
      7      -4.5142      2.00000
      8      -4.5142      2.00000
      9      -4.2491      2.00000
     10      -4.2491      2.00000
     11      -3.6509      2.00000
     12      -3.6509      2.00000
     13       3.1405      2.00000
     14       3.1405      2.00000
     15       5.2300      2.00000
     16       5.2300      2.00000
     17       9.1112      2.00000
     18       9.1112      2.00000
     19      16.6441      0.00000
     20      16.6441      0.00000
     21      18.4371      0.00000
     22      18.4371      0.00000
     23      20.1441      0.00000
     24      20.1441      0.00000
     25      20.8788      0.00000
     26      20.8788      0.00000
     27      28.7731      0.00000
     28      28.7731      0.00000
     29      31.7677      0.00000
     30      31.7677      0.00000
     31      31.8178      0.00000
     32      31.8178      0.00000

 k-point   216 :      -0.1250    0.2500    0.5000
  band No.  band energies     occupation 
      1      -6.6761      2.00000
      2      -6.6761      2.00000
      3      -4.6628      2.00000
      4      -4.6628      2.00000
      5      -4.5707      2.00000
      6      -4.5707      2.00000
      7      -4.5170      2.00000
      8      -4.5170      2.00000
      9      -4.2496      2.00000
     10      -4.2496      2.00000
     11      -3.9372      2.00000
     12      -3.9372      2.00000
     13       3.0459      2.00000
     14       3.0459      2.00000
     15       6.7578      2.00000
     16       6.7578      2.00000
     17       9.1374      2.00000
     18       9.1374      2.00000
     19      16.9421      0.00000
     20      16.9421      0.00000
     21      17.7835      0.00000
     22      17.7835      0.00000
     23      20.3826      0.00000
     24      20.3826      0.00000
     25      21.1118      0.00000
     26      21.1118      0.00000
     27      27.6186      0.00000
     28      27.6186      0.00000
     29      30.6076      0.00000
     30      30.6076      0.00000
     31      32.8570      0.00000
     32      32.8570      0.00000

 k-point   217 :      -0.0000    0.3750    0.5000
  band No.  band energies     occupation 
      1      -5.9854      2.00000
      2      -5.9854      2.00000
      3      -4.7653      2.00000
      4      -4.7653      2.00000
      5      -4.6550      2.00000
      6      -4.6550      2.00000
      7      -4.5705      2.00000
      8      -4.5705      2.00000
      9      -4.1486      2.00000
     10      -4.1486      2.00000
     11      -4.1241      2.00000
     12      -4.1241      2.00000
     13       1.2859      2.00000
     14       1.2859      2.00000
     15       9.0163      2.00000
     16       9.0163      2.00000
     17       9.0745      2.00000
     18       9.0745      2.00000
     19      15.2667      0.00000
     20      15.2667      0.00000
     21      18.6560      0.00000
     22      18.6560      0.00000
     23      20.0023      0.00000
     24      20.0023      0.00000
     25      20.9835      0.00000
     26      20.9835      0.00000
     27      27.1989      0.00000
     28      27.1989      0.00000
     29      31.5664      0.00000
     30      31.5664      0.00000
     31      33.7545      0.00000
     32      33.7545      0.00000

 k-point   218 :       0.1250    0.3750    0.5000
  band No.  band energies     occupation 
      1      -6.0510      2.00000
      2      -6.0510      2.00000
      3      -4.7621      2.00000
      4      -4.7621      2.00000
      5      -4.6527      2.00000
      6      -4.6527      2.00000
      7      -4.4737      2.00000
      8      -4.4737      2.00000
      9      -4.1893      2.00000
     10      -4.1893      2.00000
     11      -3.8757      2.00000
     12      -3.8757      2.00000
     13       1.4881      2.00000
     14       1.4881      2.00000
     15       7.5518      2.00000
     16       7.5518      2.00000
     17       9.2327      2.00000
     18       9.2327      2.00000
     19      16.0045      0.00000
     20      16.0045      0.00000
     21      18.0238      0.00000
     22      18.0238      0.00000
     23      20.0284      0.00000
     24      20.0284      0.00000
     25      21.2068      0.00000
     26      21.2068      0.00000
     27      28.7165      0.00000
     28      28.7165      0.00000
     29      30.8577      0.00000
     30      30.8577      0.00000
     31      32.8180      0.00000
     32      32.8180      0.00000

 k-point   219 :       0.2500    0.3750    0.5000
  band No.  band energies     occupation 
      1      -6.2018      2.00000
      2      -6.2018      2.00000
      3      -4.6659      2.00000
      4      -4.6659      2.00000
      5      -4.5541      2.00000
      6      -4.5541      2.00000
      7      -4.4630      2.00000
      8      -4.4630      2.00000
      9      -4.1853      2.00000
     10      -4.1853      2.00000
     11      -3.2607      2.00000
     12      -3.2607      2.00000
     13       2.0806      2.00000
     14       2.0806      2.00000
     15       5.4692      2.00000
     16       5.4692      2.00000
     17       8.4280      2.00000
     18       8.4280      2.00000
     19      16.1797      0.00000
     20      16.1797      0.00000
     21      17.9569      0.00000
     22      17.9569      0.00000
     23      20.8153      0.00000
     24      20.8153      0.00000
     25      21.3068      0.00000
     26      21.3068      0.00000
     27      29.5668      0.00000
     28      29.5668      0.00000
     29      30.5377      0.00000
     30      30.5377      0.00000
     31      33.1640      0.00000
     32      33.1640      0.00000

 k-point   220 :       0.3750    0.3750    0.5000
  band No.  band energies     occupation 
      1      -6.3348      2.00000
      2      -6.3348      2.00000
      3      -4.5835      2.00000
      4      -4.5835      2.00000
      5      -4.4852      2.00000
      6      -4.4852      2.00000
      7      -4.4491      2.00000
      8      -4.4491      2.00000
      9      -4.1394      2.00000
     10      -4.1394      2.00000
     11      -2.4532      2.00000
     12      -2.4532      2.00000
     13       2.7323      2.00000
     14       2.7323      2.00000
     15       3.9457      2.00000
     16       3.9457      2.00000
     17       7.0099      2.00000
     18       7.0099      2.00000
     19      15.8082      0.00000
     20      15.8082      0.00000
     21      18.7892      0.00000
     22      18.7892      0.00000
     23      20.5172      0.00000
     24      20.5172      0.00000
     25      22.0592      0.00000
     26      22.0592      0.00000
     27      29.4401      0.00000
     28      29.4401      0.00000
     29      29.6480      0.00000
     30      29.6480      0.00000
     31      36.6754      0.00000
     32      36.6754      0.00000

 k-point   221 :       0.5000    0.3750    0.5000
  band No.  band energies     occupation 
      1      -6.3849      2.00000
      2      -6.3849      2.00000
      3      -4.5644      2.00000
      4      -4.5644      2.00000
      5      -4.4652      2.00000
      6      -4.4652      2.00000
      7      -4.4423      2.00000
      8      -4.4423      2.00000
      9      -4.1020      2.00000
     10      -4.1020      2.00000
     11      -1.9835      2.00000
     12      -1.9835      2.00000
     13       2.3921      2.00000
     14       2.3921      2.00000
     15       4.2709      2.00000
     16       4.2709      2.00000
     17       5.9701      2.00000
     18       5.9701      2.00000
     19      15.7699      0.00000
     20      15.7699      0.00000
     21      18.9332      0.00000
     22      18.9332      0.00000
     23      20.8741      0.00000
     24      20.8741      0.00000
     25      21.8052      0.00000
     26      21.8052      0.00000
     27      29.3071      0.00000
     28      29.3071      0.00000
     29      29.7878      0.00000
     30      29.7878      0.00000
     31      39.0383      0.00000
     32      39.0383      0.00000

 k-point   222 :      -0.3750    0.3750    0.5000
  band No.  band energies     occupation 
      1      -6.3348      2.00000
      2      -6.3348      2.00000
      3      -4.5835      2.00000
      4      -4.5835      2.00000
      5      -4.4852      2.00000
      6      -4.4852      2.00000
      7      -4.4491      2.00000
      8      -4.4491      2.00000
      9      -4.1394      2.00000
     10      -4.1394      2.00000
     11      -2.4532      2.00000
     12      -2.4532      2.00000
     13       2.7323      2.00000
     14       2.7323      2.00000
     15       3.9457      2.00000
     16       3.9457      2.00000
     17       7.0099      2.00000
     18       7.0099      2.00000
     19      15.8082      0.00000
     20      15.8082      0.00000
     21      18.7892      0.00000
     22      18.7892      0.00000
     23      20.5172      0.00000
     24      20.5172      0.00000
     25      22.0592      0.00000
     26      22.0592      0.00000
     27      29.4401      0.00000
     28      29.4401      0.00000
     29      29.6480      0.00000
     30      29.6480      0.00000
     31      36.6754      0.00000
     32      36.6754      0.00000

 k-point   223 :      -0.2500    0.3750    0.5000
  band No.  band energies     occupation 
      1      -6.2018      2.00000
      2      -6.2018      2.00000
      3      -4.6659      2.00000
      4      -4.6659      2.00000
      5      -4.5541      2.00000
      6      -4.5541      2.00000
      7      -4.4630      2.00000
      8      -4.4630      2.00000
      9      -4.1853      2.00000
     10      -4.1853      2.00000
     11      -3.2607      2.00000
     12      -3.2607      2.00000
     13       2.0806      2.00000
     14       2.0806      2.00000
     15       5.4692      2.00000
     16       5.4692      2.00000
     17       8.4280      2.00000
     18       8.4280      2.00000
     19      16.1797      0.00000
     20      16.1797      0.00000
     21      17.9569      0.00000
     22      17.9569      0.00000
     23      20.8153      0.00000
     24      20.8153      0.00000
     25      21.3068      0.00000
     26      21.3068      0.00000
     27      29.5668      0.00000
     28      29.5668      0.00000
     29      30.5377      0.00000
     30      30.5377      0.00000
     31      33.1640      0.00000
     32      33.1640      0.00000

 k-point   224 :      -0.1250    0.3750    0.5000
  band No.  band energies     occupation 
      1      -6.0510      2.00000
      2      -6.0510      2.00000
      3      -4.7621      2.00000
      4      -4.7621      2.00000
      5      -4.6527      2.00000
      6      -4.6527      2.00000
      7      -4.4737      2.00000
      8      -4.4737      2.00000
      9      -4.1893      2.00000
     10      -4.1893      2.00000
     11      -3.8757      2.00000
     12      -3.8757      2.00000
     13       1.4881      2.00000
     14       1.4881      2.00000
     15       7.5518      2.00000
     16       7.5518      2.00000
     17       9.2327      2.00000
     18       9.2327      2.00000
     19      16.0045      0.00000
     20      16.0045      0.00000
     21      18.0238      0.00000
     22      18.0238      0.00000
     23      20.0284      0.00000
     24      20.0284      0.00000
     25      21.2068      0.00000
     26      21.2068      0.00000
     27      28.7165      0.00000
     28      28.7165      0.00000
     29      30.8577      0.00000
     30      30.8577      0.00000
     31      32.8180      0.00000
     32      32.8180      0.00000

 k-point   225 :      -0.0000    0.5000    0.5000
  band No.  band energies     occupation 
      1      -5.4121      2.00000
      2      -5.4121      2.00000
      3      -4.8642      2.00000
      4      -4.8642      2.00000
      5      -4.7028      2.00000
      6      -4.7028      2.00000
      7      -4.7028      2.00000
      8      -4.7028      2.00000
      9      -4.1430      2.00000
     10      -4.1430      2.00000
     11      -4.1429      2.00000
     12      -4.1429      2.00000
     13       0.6329      2.00000
     14       0.6329      2.00000
     15       9.3607      2.00000
     16       9.3607      2.00000
     17       9.3609      2.00000
     18       9.3609      2.00000
     19      14.7457      0.00000
     20      14.7457      0.00000
     21      19.3360      0.00000
     22      19.3360      0.00000
     23      19.3370      0.00000
     24      19.3370      0.00000
     25      20.6274      0.00000
     26      20.6274      0.00000
     27      27.1006      0.00000
     28      27.1006      0.00000
     29      34.4813      0.00000
     30      34.4813      0.00000
     31      34.4814      0.00000
     32      34.4814      0.00000

 k-point   226 :       0.1250    0.5000    0.5000
  band No.  band energies     occupation 
      1      -5.7453      2.00000
      2      -5.7453      2.00000
      3      -4.8023      2.00000
      4      -4.8023      2.00000
      5      -4.6586      2.00000
      6      -4.6586      2.00000
      7      -4.4624      2.00000
      8      -4.4624      2.00000
      9      -4.1440      2.00000
     10      -4.1440      2.00000
     11      -3.8714      2.00000
     12      -3.8714      2.00000
     13       0.8115      2.00000
     14       0.8115      2.00000
     15       8.2032      2.00000
     16       8.2032      2.00000
     17       8.9611      2.00000
     18       8.9611      2.00000
     19      15.6970      0.00000
     20      15.6970      0.00000
     21      17.7665      0.00000
     22      17.7665      0.00000
     23      19.9660      0.00000
     24      19.9660      0.00000
     25      21.4519      0.00000
     26      21.4519      0.00000
     27      28.2380      0.00000
     28      28.2380      0.00000
     29      32.1952      0.00000
     30      32.1952      0.00000
     31      33.7180      0.00000
     32      33.7180      0.00000

 k-point   227 :       0.2500    0.5000    0.5000
  band No.  band energies     occupation 
      1      -6.1394      2.00000
      2      -6.1394      2.00000
      3      -4.6807      2.00000
      4      -4.6807      2.00000
      5      -4.5342      2.00000
      6      -4.5342      2.00000
      7      -4.4304      2.00000
      8      -4.4304      2.00000
      9      -4.1390      2.00000
     10      -4.1390      2.00000
     11      -2.9922      2.00000
     12      -2.9922      2.00000
     13       1.3812      2.00000
     14       1.3812      2.00000
     15       6.1191      2.00000
     16       6.1191      2.00000
     17       7.7381      2.00000
     18       7.7381      2.00000
     19      16.3375      0.00000
     20      16.3375      0.00000
     21      17.2884      0.00000
     22      17.2884      0.00000
     23      21.3655      0.00000
     24      21.3655      0.00000
     25      21.3913      0.00000
     26      21.3913      0.00000
     27      29.7833      0.00000
     28      29.7833      0.00000
     29      29.9131      0.00000
     30      29.9131      0.00000
     31      34.7664      0.00000
     32      34.7664      0.00000

 k-point   228 :       0.3750    0.5000    0.5000
  band No.  band energies     occupation 
      1      -6.3849      2.00000
      2      -6.3849      2.00000
      3      -4.5644      2.00000
      4      -4.5644      2.00000
      5      -4.4652      2.00000
      6      -4.4652      2.00000
      7      -4.4423      2.00000
      8      -4.4423      2.00000
      9      -4.1020      2.00000
     10      -4.1020      2.00000
     11      -1.9835      2.00000
     12      -1.9835      2.00000
     13       2.3921      2.00000
     14       2.3921      2.00000
     15       4.2709      2.00000
     16       4.2709      2.00000
     17       5.9701      2.00000
     18       5.9701      2.00000
     19      15.7699      0.00000
     20      15.7699      0.00000
     21      18.9332      0.00000
     22      18.9332      0.00000
     23      20.8741      0.00000
     24      20.8741      0.00000
     25      21.8052      0.00000
     26      21.8052      0.00000
     27      29.3071      0.00000
     28      29.3071      0.00000
     29      29.7878      0.00000
     30      29.7878      0.00000
     31      39.0383      0.00000
     32      39.0383      0.00000

 k-point   229 :       0.5000    0.5000    0.5000
  band No.  band energies     occupation 
      1      -6.4669      2.00000
      2      -6.4669      2.00000
      3      -4.4825      2.00000
      4      -4.4825      2.00000
      5      -4.4825      2.00000
      6      -4.4825      2.00000
      7      -4.4585      2.00000
      8      -4.4585      2.00000
      9      -4.0685      2.00000
     10      -4.0685      2.00000
     11      -1.4512      2.00000
     12      -1.4512      2.00000
     13       3.4437      2.00000
     14       3.4437      2.00000
     15       3.4437      2.00000
     16       3.4437      2.00000
     17       4.5920      2.00000
     18       4.5920      2.00000
     19      15.6626      0.00000
     20      15.6626      0.00000
     21      20.6103      0.00000
     22      20.6103      0.00000
     23      20.6120      0.00000
     24      20.6120      0.00000
     25      20.6120      0.00000
     26      20.6120      0.00000
     27      29.6699      0.00000
     28      29.6699      0.00000
     29      29.6699      0.00000
     30      29.6699      0.00000
     31      39.8247      0.00000
     32      39.8247      0.00000

 k-point   230 :      -0.3750    0.5000    0.5000
  band No.  band energies     occupation 
      1      -6.3849      2.00000
      2      -6.3849      2.00000
      3      -4.5644      2.00000
      4      -4.5644      2.00000
      5      -4.4652      2.00000
      6      -4.4652      2.00000
      7      -4.4423      2.00000
      8      -4.4423      2.00000
      9      -4.1020      2.00000
     10      -4.1020      2.00000
     11      -1.9835      2.00000
     12      -1.9835      2.00000
     13       2.3921      2.00000
     14       2.3921      2.00000
     15       4.2709      2.00000
     16       4.2709      2.00000
     17       5.9701      2.00000
     18       5.9701      2.00000
     19      15.7699      0.00000
     20      15.7699      0.00000
     21      18.9332      0.00000
     22      18.9332      0.00000
     23      20.8741      0.00000
     24      20.8741      0.00000
     25      21.8052      0.00000
     26      21.8052      0.00000
     27      29.3071      0.00000
     28      29.3071      0.00000
     29      29.7878      0.00000
     30      29.7878      0.00000
     31      39.0383      0.00000
     32      39.0383      0.00000

 k-point   231 :      -0.2500    0.5000    0.5000
  band No.  band energies     occupation 
      1      -6.1394      2.00000
      2      -6.1394      2.00000
      3      -4.6807      2.00000
      4      -4.6807      2.00000
      5      -4.5342      2.00000
      6      -4.5342      2.00000
      7      -4.4304      2.00000
      8      -4.4304      2.00000
      9      -4.1390      2.00000
     10      -4.1390      2.00000
     11      -2.9922      2.00000
     12      -2.9922      2.00000
     13       1.3812      2.00000
     14       1.3812      2.00000
     15       6.1191      2.00000
     16       6.1191      2.00000
     17       7.7381      2.00000
     18       7.7381      2.00000
     19      16.3375      0.00000
     20      16.3375      0.00000
     21      17.2884      0.00000
     22      17.2884      0.00000
     23      21.3655      0.00000
     24      21.3655      0.00000
     25      21.3913      0.00000
     26      21.3913      0.00000
     27      29.7833      0.00000
     28      29.7833      0.00000
     29      29.9131      0.00000
     30      29.9131      0.00000
     31      34.7664      0.00000
     32      34.7664      0.00000

 k-point   232 :      -0.1250    0.5000    0.5000
  band No.  band energies     occupation 
      1      -5.7453      2.00000
      2      -5.7453      2.00000
      3      -4.8023      2.00000
      4      -4.8023      2.00000
      5      -4.6586      2.00000
      6      -4.6586      2.00000
      7      -4.4624      2.00000
      8      -4.4624      2.00000
      9      -4.1440      2.00000
     10      -4.1440      2.00000
     11      -3.8714      2.00000
     12      -3.8714      2.00000
     13       0.8115      2.00000
     14       0.8115      2.00000
     15       8.2032      2.00000
     16       8.2032      2.00000
     17       8.9611      2.00000
     18       8.9611      2.00000
     19      15.6970      0.00000
     20      15.6970      0.00000
     21      17.7665      0.00000
     22      17.7665      0.00000
     23      19.9660      0.00000
     24      19.9660      0.00000
     25      21.4519      0.00000
     26      21.4519      0.00000
     27      28.2380      0.00000
     28      28.2380      0.00000
     29      32.1952      0.00000
     30      32.1952      0.00000
     31      33.7180      0.00000
     32      33.7180      0.00000

 k-point   233 :       0.0000   -0.3750    0.5000
  band No.  band energies     occupation 
      1      -5.9854      2.00000
      2      -5.9854      2.00000
      3      -4.7653      2.00000
      4      -4.7653      2.00000
      5      -4.6550      2.00000
      6      -4.6550      2.00000
      7      -4.5705      2.00000
      8      -4.5705      2.00000
      9      -4.1486      2.00000
     10      -4.1486      2.00000
     11      -4.1241      2.00000
     12      -4.1241      2.00000
     13       1.2859      2.00000
     14       1.2859      2.00000
     15       9.0163      2.00000
     16       9.0163      2.00000
     17       9.0745      2.00000
     18       9.0745      2.00000
     19      15.2667      0.00000
     20      15.2667      0.00000
     21      18.6560      0.00000
     22      18.6560      0.00000
     23      20.0023      0.00000
     24      20.0023      0.00000
     25      20.9835      0.00000
     26      20.9835      0.00000
     27      27.1989      0.00000
     28      27.1989      0.00000
     29      31.5664      0.00000
     30      31.5664      0.00000
     31      33.7545      0.00000
     32      33.7545      0.00000

 k-point   234 :       0.1250   -0.3750    0.5000
  band No.  band energies     occupation 
      1      -6.0510      2.00000
      2      -6.0510      2.00000
      3      -4.7621      2.00000
      4      -4.7621      2.00000
      5      -4.6527      2.00000
      6      -4.6527      2.00000
      7      -4.4737      2.00000
      8      -4.4737      2.00000
      9      -4.1893      2.00000
     10      -4.1893      2.00000
     11      -3.8757      2.00000
     12      -3.8757      2.00000
     13       1.4881      2.00000
     14       1.4881      2.00000
     15       7.5518      2.00000
     16       7.5518      2.00000
     17       9.2327      2.00000
     18       9.2327      2.00000
     19      16.0045      0.00000
     20      16.0045      0.00000
     21      18.0238      0.00000
     22      18.0238      0.00000
     23      20.0284      0.00000
     24      20.0284      0.00000
     25      21.2068      0.00000
     26      21.2068      0.00000
     27      28.7165      0.00000
     28      28.7165      0.00000
     29      30.8577      0.00000
     30      30.8577      0.00000
     31      32.8180      0.00000
     32      32.8180      0.00000

 k-point   235 :       0.2500   -0.3750    0.5000
  band No.  band energies     occupation 
      1      -6.2018      2.00000
      2      -6.2018      2.00000
      3      -4.6659      2.00000
      4      -4.6659      2.00000
      5      -4.5541      2.00000
      6      -4.5541      2.00000
      7      -4.4630      2.00000
      8      -4.4630      2.00000
      9      -4.1853      2.00000
     10      -4.1853      2.00000
     11      -3.2607      2.00000
     12      -3.2607      2.00000
     13       2.0806      2.00000
     14       2.0806      2.00000
     15       5.4692      2.00000
     16       5.4692      2.00000
     17       8.4280      2.00000
     18       8.4280      2.00000
     19      16.1797      0.00000
     20      16.1797      0.00000
     21      17.9569      0.00000
     22      17.9569      0.00000
     23      20.8153      0.00000
     24      20.8153      0.00000
     25      21.3068      0.00000
     26      21.3068      0.00000
     27      29.5668      0.00000
     28      29.5668      0.00000
     29      30.5377      0.00000
     30      30.5377      0.00000
     31      33.1640      0.00000
     32      33.1640      0.00000

 k-point   236 :       0.3750   -0.3750    0.5000
  band No.  band energies     occupation 
      1      -6.3348      2.00000
      2      -6.3348      2.00000
      3      -4.5835      2.00000
      4      -4.5835      2.00000
      5      -4.4852      2.00000
      6      -4.4852      2.00000
      7      -4.4491      2.00000
      8      -4.4491      2.00000
      9      -4.1394      2.00000
     10      -4.1394      2.00000
     11      -2.4532      2.00000
     12      -2.4532      2.00000
     13       2.7323      2.00000
     14       2.7323      2.00000
     15       3.9457      2.00000
     16       3.9457      2.00000
     17       7.0099      2.00000
     18       7.0099      2.00000
     19      15.8082      0.00000
     20      15.8082      0.00000
     21      18.7892      0.00000
     22      18.7892      0.00000
     23      20.5172      0.00000
     24      20.5172      0.00000
     25      22.0592      0.00000
     26      22.0592      0.00000
     27      29.4401      0.00000
     28      29.4401      0.00000
     29      29.6480      0.00000
     30      29.6480      0.00000
     31      36.6754      0.00000
     32      36.6754      0.00000

 k-point   237 :       0.5000   -0.3750    0.5000
  band No.  band energies     occupation 
      1      -6.3849      2.00000
      2      -6.3849      2.00000
      3      -4.5644      2.00000
      4      -4.5644      2.00000
      5      -4.4652      2.00000
      6      -4.4652      2.00000
      7      -4.4423      2.00000
      8      -4.4423      2.00000
      9      -4.1020      2.00000
     10      -4.1020      2.00000
     11      -1.9835      2.00000
     12      -1.9835      2.00000
     13       2.3921      2.00000
     14       2.3921      2.00000
     15       4.2709      2.00000
     16       4.2709      2.00000
     17       5.9701      2.00000
     18       5.9701      2.00000
     19      15.7699      0.00000
     20      15.7699      0.00000
     21      18.9332      0.00000
     22      18.9332      0.00000
     23      20.8741      0.00000
     24      20.8741      0.00000
     25      21.8052      0.00000
     26      21.8052      0.00000
     27      29.3071      0.00000
     28      29.3071      0.00000
     29      29.7878      0.00000
     30      29.7878      0.00000
     31      39.0383      0.00000
     32      39.0383      0.00000

 k-point   238 :      -0.3750   -0.3750    0.5000
  band No.  band energies     occupation 
      1      -6.3348      2.00000
      2      -6.3348      2.00000
      3      -4.5835      2.00000
      4      -4.5835      2.00000
      5      -4.4852      2.00000
      6      -4.4852      2.00000
      7      -4.4491      2.00000
      8      -4.4491      2.00000
      9      -4.1394      2.00000
     10      -4.1394      2.00000
     11      -2.4532      2.00000
     12      -2.4532      2.00000
     13       2.7323      2.00000
     14       2.7323      2.00000
     15       3.9457      2.00000
     16       3.9457      2.00000
     17       7.0099      2.00000
     18       7.0099      2.00000
     19      15.8082      0.00000
     20      15.8082      0.00000
     21      18.7892      0.00000
     22      18.7892      0.00000
     23      20.5172      0.00000
     24      20.5172      0.00000
     25      22.0592      0.00000
     26      22.0592      0.00000
     27      29.4401      0.00000
     28      29.4401      0.00000
     29      29.6480      0.00000
     30      29.6480      0.00000
     31      36.6754      0.00000
     32      36.6754      0.00000

 k-point   239 :      -0.2500   -0.3750    0.5000
  band No.  band energies     occupation 
      1      -6.2018      2.00000
      2      -6.2018      2.00000
      3      -4.6659      2.00000
      4      -4.6659      2.00000
      5      -4.5541      2.00000
      6      -4.5541      2.00000
      7      -4.4630      2.00000
      8      -4.4630      2.00000
      9      -4.1853      2.00000
     10      -4.1853      2.00000
     11      -3.2607      2.00000
     12      -3.2607      2.00000
     13       2.0806      2.00000
     14       2.0806      2.00000
     15       5.4692      2.00000
     16       5.4692      2.00000
     17       8.4280      2.00000
     18       8.4280      2.00000
     19      16.1797      0.00000
     20      16.1797      0.00000
     21      17.9569      0.00000
     22      17.9569      0.00000
     23      20.8153      0.00000
     24      20.8153      0.00000
     25      21.3068      0.00000
     26      21.3068      0.00000
     27      29.5668      0.00000
     28      29.5668      0.00000
     29      30.5377      0.00000
     30      30.5377      0.00000
     31      33.1640      0.00000
     32      33.1640      0.00000

 k-point   240 :      -0.1250   -0.3750    0.5000
  band No.  band energies     occupation 
      1      -6.0510      2.00000
      2      -6.0510      2.00000
      3      -4.7621      2.00000
      4      -4.7621      2.00000
      5      -4.6527      2.00000
      6      -4.6527      2.00000
      7      -4.4737      2.00000
      8      -4.4737      2.00000
      9      -4.1893      2.00000
     10      -4.1893      2.00000
     11      -3.8757      2.00000
     12      -3.8757      2.00000
     13       1.4881      2.00000
     14       1.4881      2.00000
     15       7.5518      2.00000
     16       7.5518      2.00000
     17       9.2327      2.00000
     18       9.2327      2.00000
     19      16.0045      0.00000
     20      16.0045      0.00000
     21      18.0238      0.00000
     22      18.0238      0.00000
     23      20.0284      0.00000
     24      20.0284      0.00000
     25      21.2068      0.00000
     26      21.2068      0.00000
     27      28.7165      0.00000
     28      28.7165      0.00000
     29      30.8577      0.00000
     30      30.8577      0.00000
     31      32.8180      0.00000
     32      32.8180      0.00000

 k-point   241 :       0.0000   -0.2500    0.5000
  band No.  band energies     occupation 
      1      -6.7950      2.00000
      2      -6.7950      2.00000
      3      -4.6677      2.00000
      4      -4.6677      2.00000
      5      -4.5324      2.00000
      6      -4.5324      2.00000
      7      -4.5190      2.00000
      8      -4.5190      2.00000
      9      -4.1664      2.00000
     10      -4.1664      2.00000
     11      -4.1263      2.00000
     12      -4.1263      2.00000
     13       2.8836      2.00000
     14       2.8836      2.00000
     15       8.2849      2.00000
     16       8.2849      2.00000
     17       8.4797      2.00000
     18       8.4797      2.00000
     19      16.1481      0.00000
     20      16.1481      0.00000
     21      18.0066      0.00000
     22      18.0066      0.00000
     23      20.7480      0.00000
     24      20.7480      0.00000
     25      21.6164      0.00000
     26      21.6164      0.00000
     27      26.5229      0.00000
     28      26.5229      0.00000
     29      30.4828      0.00000
     30      30.4828      0.00000
     31      33.0334      0.00000
     32      33.0334      0.00000

 k-point   242 :       0.1250   -0.2500    0.5000
  band No.  band energies     occupation 
      1      -6.6761      2.00000
      2      -6.6761      2.00000
      3      -4.6628      2.00000
      4      -4.6628      2.00000
      5      -4.5707      2.00000
      6      -4.5707      2.00000
      7      -4.5170      2.00000
      8      -4.5170      2.00000
      9      -4.2496      2.00000
     10      -4.2496      2.00000
     11      -3.9372      2.00000
     12      -3.9372      2.00000
     13       3.0459      2.00000
     14       3.0459      2.00000
     15       6.7578      2.00000
     16       6.7578      2.00000
     17       9.1374      2.00000
     18       9.1374      2.00000
     19      16.9421      0.00000
     20      16.9421      0.00000
     21      17.7835      0.00000
     22      17.7835      0.00000
     23      20.3826      0.00000
     24      20.3826      0.00000
     25      21.1118      0.00000
     26      21.1118      0.00000
     27      27.6186      0.00000
     28      27.6186      0.00000
     29      30.6076      0.00000
     30      30.6076      0.00000
     31      32.8570      0.00000
     32      32.8570      0.00000

 k-point   243 :       0.2500   -0.2500    0.5000
  band No.  band energies     occupation 
      1      -6.4099      2.00000
      2      -6.4099      2.00000
      3      -4.6533      2.00000
      4      -4.6533      2.00000
      5      -4.5892      2.00000
      6      -4.5892      2.00000
      7      -4.5142      2.00000
      8      -4.5142      2.00000
      9      -4.2491      2.00000
     10      -4.2491      2.00000
     11      -3.6509      2.00000
     12      -3.6509      2.00000
     13       3.1405      2.00000
     14       3.1405      2.00000
     15       5.2300      2.00000
     16       5.2300      2.00000
     17       9.1112      2.00000
     18       9.1112      2.00000
     19      16.6441      0.00000
     20      16.6441      0.00000
     21      18.4371      0.00000
     22      18.4371      0.00000
     23      20.1441      0.00000
     24      20.1441      0.00000
     25      20.8788      0.00000
     26      20.8788      0.00000
     27      28.7731      0.00000
     28      28.7731      0.00000
     29      31.7677      0.00000
     30      31.7677      0.00000
     31      31.8178      0.00000
     32      31.8178      0.00000

 k-point   244 :       0.3750   -0.2500    0.5000
  band No.  band energies     occupation 
      1      -6.2018      2.00000
      2      -6.2018      2.00000
      3      -4.6659      2.00000
      4      -4.6659      2.00000
      5      -4.5541      2.00000
      6      -4.5541      2.00000
      7      -4.4630      2.00000
      8      -4.4630      2.00000
      9      -4.1853      2.00000
     10      -4.1853      2.00000
     11      -3.2607      2.00000
     12      -3.2607      2.00000
     13       2.0806      2.00000
     14       2.0806      2.00000
     15       5.4692      2.00000
     16       5.4692      2.00000
     17       8.4280      2.00000
     18       8.4280      2.00000
     19      16.1797      0.00000
     20      16.1797      0.00000
     21      17.9569      0.00000
     22      17.9569      0.00000
     23      20.8153      0.00000
     24      20.8153      0.00000
     25      21.3068      0.00000
     26      21.3068      0.00000
     27      29.5668      0.00000
     28      29.5668      0.00000
     29      30.5377      0.00000
     30      30.5377      0.00000
     31      33.1640      0.00000
     32      33.1640      0.00000

 k-point   245 :       0.5000   -0.2500    0.5000
  band No.  band energies     occupation 
      1      -6.1394      2.00000
      2      -6.1394      2.00000
      3      -4.6807      2.00000
      4      -4.6807      2.00000
      5      -4.5342      2.00000
      6      -4.5342      2.00000
      7      -4.4304      2.00000
      8      -4.4304      2.00000
      9      -4.1390      2.00000
     10      -4.1390      2.00000
     11      -2.9922      2.00000
     12      -2.9922      2.00000
     13       1.3812      2.00000
     14       1.3812      2.00000
     15       6.1191      2.00000
     16       6.1191      2.00000
     17       7.7381      2.00000
     18       7.7381      2.00000
     19      16.3375      0.00000
     20      16.3375      0.00000
     21      17.2884      0.00000
     22      17.2884      0.00000
     23      21.3655      0.00000
     24      21.3655      0.00000
     25      21.3913      0.00000
     26      21.3913      0.00000
     27      29.7833      0.00000
     28      29.7833      0.00000
     29      29.9131      0.00000
     30      29.9131      0.00000
     31      34.7664      0.00000
     32      34.7664      0.00000

 k-point   246 :      -0.3750   -0.2500    0.5000
  band No.  band energies     occupation 
      1      -6.2018      2.00000
      2      -6.2018      2.00000
      3      -4.6659      2.00000
      4      -4.6659      2.00000
      5      -4.5541      2.00000
      6      -4.5541      2.00000
      7      -4.4630      2.00000
      8      -4.4630      2.00000
      9      -4.1853      2.00000
     10      -4.1853      2.00000
     11      -3.2607      2.00000
     12      -3.2607      2.00000
     13       2.0806      2.00000
     14       2.0806      2.00000
     15       5.4692      2.00000
     16       5.4692      2.00000
     17       8.4280      2.00000
     18       8.4280      2.00000
     19      16.1797      0.00000
     20      16.1797      0.00000
     21      17.9569      0.00000
     22      17.9569      0.00000
     23      20.8153      0.00000
     24      20.8153      0.00000
     25      21.3068      0.00000
     26      21.3068      0.00000
     27      29.5668      0.00000
     28      29.5668      0.00000
     29      30.5377      0.00000
     30      30.5377      0.00000
     31      33.1640      0.00000
     32      33.1640      0.00000

 k-point   247 :      -0.2500   -0.2500    0.5000
  band No.  band energies     occupation 
      1      -6.4099      2.00000
      2      -6.4099      2.00000
      3      -4.6533      2.00000
      4      -4.6533      2.00000
      5      -4.5892      2.00000
      6      -4.5892      2.00000
      7      -4.5142      2.00000
      8      -4.5142      2.00000
      9      -4.2491      2.00000
     10      -4.2491      2.00000
     11      -3.6509      2.00000
     12      -3.6509      2.00000
     13       3.1405      2.00000
     14       3.1405      2.00000
     15       5.2300      2.00000
     16       5.2300      2.00000
     17       9.1112      2.00000
     18       9.1112      2.00000
     19      16.6441      0.00000
     20      16.6441      0.00000
     21      18.4371      0.00000
     22      18.4371      0.00000
     23      20.1441      0.00000
     24      20.1441      0.00000
     25      20.8788      0.00000
     26      20.8788      0.00000
     27      28.7731      0.00000
     28      28.7731      0.00000
     29      31.7677      0.00000
     30      31.7677      0.00000
     31      31.8178      0.00000
     32      31.8178      0.00000

 k-point   248 :      -0.1250   -0.2500    0.5000
  band No.  band energies     occupation 
      1      -6.6761      2.00000
      2      -6.6761      2.00000
      3      -4.6628      2.00000
      4      -4.6628      2.00000
      5      -4.5707      2.00000
      6      -4.5707      2.00000
      7      -4.5170      2.00000
      8      -4.5170      2.00000
      9      -4.2496      2.00000
     10      -4.2496      2.00000
     11      -3.9372      2.00000
     12      -3.9372      2.00000
     13       3.0459      2.00000
     14       3.0459      2.00000
     15       6.7578      2.00000
     16       6.7578      2.00000
     17       9.1374      2.00000
     18       9.1374      2.00000
     19      16.9421      0.00000
     20      16.9421      0.00000
     21      17.7835      0.00000
     22      17.7835      0.00000
     23      20.3826      0.00000
     24      20.3826      0.00000
     25      21.1118      0.00000
     26      21.1118      0.00000
     27      27.6186      0.00000
     28      27.6186      0.00000
     29      30.6076      0.00000
     30      30.6076      0.00000
     31      32.8570      0.00000
     32      32.8570      0.00000

 k-point   249 :       0.0000   -0.1250    0.5000
  band No.  band energies     occupation 
      1      -7.3724      2.00000
      2      -7.3724      2.00000
      3      -4.5901      2.00000
      4      -4.5901      2.00000
      5      -4.4939      2.00000
      6      -4.4939      2.00000
      7      -4.3886      2.00000
      8      -4.3886      2.00000
      9      -4.2043      2.00000
     10      -4.2043      2.00000
     11      -4.2005      2.00000
     12      -4.2005      2.00000
     13       4.7373      2.00000
     14       4.7373      2.00000
     15       7.6487      2.00000
     16       7.6487      2.00000
     17       7.8540      2.00000
     18       7.8540      2.00000
     19      15.7207      0.00000
     20      15.7207      0.00000
     21      18.8656      0.00000
     22      18.8656      0.00000
     23      19.9066      0.00000
     24      19.9066      0.00000
     25      23.3419      0.00000
     26      23.3419      0.00000
     27      24.9051      0.00000
     28      24.9051      0.00000
     29      32.5273      0.00000
     30      32.5273      0.00000
     31      33.1345      0.00000
     32      33.1345      0.00000

 k-point   250 :       0.1250   -0.1250    0.5000
  band No.  band energies     occupation 
      1      -7.1853      2.00000
      2      -7.1853      2.00000
      3      -4.5700      2.00000
      4      -4.5700      2.00000
      5      -4.5532      2.00000
      6      -4.5532      2.00000
      7      -4.4296      2.00000
      8      -4.4296      2.00000
      9      -4.2895      2.00000
     10      -4.2895      2.00000
     11      -4.0552      2.00000
     12      -4.0552      2.00000
     13       4.4342      2.00000
     14       4.4342      2.00000
     15       6.7008      2.00000
     16       6.7008      2.00000
     17       8.6420      2.00000
     18       8.6420      2.00000
     19      16.3649      0.00000
     20      16.3649      0.00000
     21      18.6532      0.00000
     22      18.6532      0.00000
     23      19.6280      0.00000
     24      19.6280      0.00000
     25      22.6462      0.00000
     26      22.6462      0.00000
     27      25.6752      0.00000
     28      25.6752      0.00000
     29      32.3625      0.00000
     30      32.3625      0.00000
     31      32.7620      0.00000
     32      32.7620      0.00000

 k-point   251 :       0.2500   -0.1250    0.5000
  band No.  band energies     occupation 
      1      -6.6761      2.00000
      2      -6.6761      2.00000
      3      -4.6628      2.00000
      4      -4.6628      2.00000
      5      -4.5707      2.00000
      6      -4.5707      2.00000
      7      -4.5170      2.00000
      8      -4.5170      2.00000
      9      -4.2496      2.00000
     10      -4.2496      2.00000
     11      -3.9372      2.00000
     12      -3.9372      2.00000
     13       3.0459      2.00000
     14       3.0459      2.00000
     15       6.7578      2.00000
     16       6.7578      2.00000
     17       9.1374      2.00000
     18       9.1374      2.00000
     19      16.9421      0.00000
     20      16.9421      0.00000
     21      17.7835      0.00000
     22      17.7835      0.00000
     23      20.3826      0.00000
     24      20.3826      0.00000
     25      21.1118      0.00000
     26      21.1118      0.00000
     27      27.6186      0.00000
     28      27.6186      0.00000
     29      30.6076      0.00000
     30      30.6076      0.00000
     31      32.8570      0.00000
     32      32.8570      0.00000

 k-point   252 :       0.3750   -0.1250    0.5000
  band No.  band energies     occupation 
      1      -6.0510      2.00000
      2      -6.0510      2.00000
      3      -4.7621      2.00000
      4      -4.7621      2.00000
      5      -4.6527      2.00000
      6      -4.6527      2.00000
      7      -4.4737      2.00000
      8      -4.4737      2.00000
      9      -4.1893      2.00000
     10      -4.1893      2.00000
     11      -3.8757      2.00000
     12      -3.8757      2.00000
     13       1.4881      2.00000
     14       1.4881      2.00000
     15       7.5518      2.00000
     16       7.5518      2.00000
     17       9.2327      2.00000
     18       9.2327      2.00000
     19      16.0045      0.00000
     20      16.0045      0.00000
     21      18.0238      0.00000
     22      18.0238      0.00000
     23      20.0284      0.00000
     24      20.0284      0.00000
     25      21.2068      0.00000
     26      21.2068      0.00000
     27      28.7165      0.00000
     28      28.7165      0.00000
     29      30.8577      0.00000
     30      30.8577      0.00000
     31      32.8180      0.00000
     32      32.8180      0.00000

 k-point   253 :       0.5000   -0.1250    0.5000
  band No.  band energies     occupation 
      1      -5.7453      2.00000
      2      -5.7453      2.00000
      3      -4.8023      2.00000
      4      -4.8023      2.00000
      5      -4.6586      2.00000
      6      -4.6586      2.00000
      7      -4.4624      2.00000
      8      -4.4624      2.00000
      9      -4.1440      2.00000
     10      -4.1440      2.00000
     11      -3.8714      2.00000
     12      -3.8714      2.00000
     13       0.8115      2.00000
     14       0.8115      2.00000
     15       8.2032      2.00000
     16       8.2032      2.00000
     17       8.9611      2.00000
     18       8.9611      2.00000
     19      15.6970      0.00000
     20      15.6970      0.00000
     21      17.7665      0.00000
     22      17.7665      0.00000
     23      19.9660      0.00000
     24      19.9660      0.00000
     25      21.4519      0.00000
     26      21.4519      0.00000
     27      28.2380      0.00000
     28      28.2380      0.00000
     29      32.1952      0.00000
     30      32.1952      0.00000
     31      33.7180      0.00000
     32      33.7180      0.00000

 k-point   254 :      -0.3750   -0.1250    0.5000
  band No.  band energies     occupation 
      1      -6.0510      2.00000
      2      -6.0510      2.00000
      3      -4.7621      2.00000
      4      -4.7621      2.00000
      5      -4.6527      2.00000
      6      -4.6527      2.00000
      7      -4.4737      2.00000
      8      -4.4737      2.00000
      9      -4.1893      2.00000
     10      -4.1893      2.00000
     11      -3.8757      2.00000
     12      -3.8757      2.00000
     13       1.4881      2.00000
     14       1.4881      2.00000
     15       7.5518      2.00000
     16       7.5518      2.00000
     17       9.2327      2.00000
     18       9.2327      2.00000
     19      16.0045      0.00000
     20      16.0045      0.00000
     21      18.0238      0.00000
     22      18.0238      0.00000
     23      20.0284      0.00000
     24      20.0284      0.00000
     25      21.2068      0.00000
     26      21.2068      0.00000
     27      28.7165      0.00000
     28      28.7165      0.00000
     29      30.8577      0.00000
     30      30.8577      0.00000
     31      32.8180      0.00000
     32      32.8180      0.00000

 k-point   255 :      -0.2500   -0.1250    0.5000
  band No.  band energies     occupation 
      1      -6.6761      2.00000
      2      -6.6761      2.00000
      3      -4.6628      2.00000
      4      -4.6628      2.00000
      5      -4.5707      2.00000
      6      -4.5707      2.00000
      7      -4.5170      2.00000
      8      -4.5170      2.00000
      9      -4.2496      2.00000
     10      -4.2496      2.00000
     11      -3.9372      2.00000
     12      -3.9372      2.00000
     13       3.0459      2.00000
     14       3.0459      2.00000
     15       6.7578      2.00000
     16       6.7578      2.00000
     17       9.1374      2.00000
     18       9.1374      2.00000
     19      16.9421      0.00000
     20      16.9421      0.00000
     21      17.7835      0.00000
     22      17.7835      0.00000
     23      20.3826      0.00000
     24      20.3826      0.00000
     25      21.1118      0.00000
     26      21.1118      0.00000
     27      27.6186      0.00000
     28      27.6186      0.00000
     29      30.6076      0.00000
     30      30.6076      0.00000
     31      32.8570      0.00000
     32      32.8570      0.00000

 k-point   256 :      -0.1250   -0.1250    0.5000
  band No.  band energies     occupation 
      1      -7.1853      2.00000
      2      -7.1853      2.00000
      3      -4.5700      2.00000
      4      -4.5700      2.00000
      5      -4.5532      2.00000
      6      -4.5532      2.00000
      7      -4.4296      2.00000
      8      -4.4296      2.00000
      9      -4.2895      2.00000
     10      -4.2895      2.00000
     11      -4.0552      2.00000
     12      -4.0552      2.00000
     13       4.4342      2.00000
     14       4.4342      2.00000
     15       6.7008      2.00000
     16       6.7008      2.00000
     17       8.6420      2.00000
     18       8.6420      2.00000
     19      16.3649      0.00000
     20      16.3649      0.00000
     21      18.6532      0.00000
     22      18.6532      0.00000
     23      19.6280      0.00000
     24      19.6280      0.00000
     25      22.6462      0.00000
     26      22.6462      0.00000
     27      25.6752      0.00000
     28      25.6752      0.00000
     29      32.3625      0.00000
     30      32.3625      0.00000
     31      32.7620      0.00000
     32      32.7620      0.00000

 k-point   257 :       0.0000    0.0000   -0.3333
  band No.  band energies     occupation 
      1      -8.3241      2.00000
      2      -7.0431      2.00000
      3      -4.6617      2.00000
      4      -4.5276      2.00000
      5      -4.4787      2.00000
      6      -4.3845      2.00000
      7      -4.3845      2.00000
      8      -4.2854      2.00000
      9      -4.2091      2.00000
     10      -4.1904      2.00000
     11      -4.1904      2.00000
     12      -3.7086      2.00000
     13       4.3656      2.00000
     14       6.6927      2.00000
     15       6.6927      2.00000
     16       7.0553      2.00000
     17       8.1255      2.00000
     18       8.1255      2.00000
     19      12.9859      0.00000
     20      15.5776      0.00000
     21      18.3295      0.00000
     22      20.8964      0.00000
     23      20.9320      0.00000
     24      21.0288      0.00000
     25      23.9317      0.00000
     26      23.9317      0.00000
     27      24.7294      0.00000
     28      24.7294      0.00000
     29      31.4341      0.00000
     30      31.4341      0.00000
     31      32.1271      0.00000
     32      33.2412      0.00000

 k-point   258 :       0.1250   -0.0000   -0.3333
  band No.  band energies     occupation 
      1      -8.1017      2.00000
      2      -6.8846      2.00000
      3      -4.6443      2.00000
      4      -4.5352      2.00000
      5      -4.5149      2.00000
      6      -4.4350      2.00000
      7      -4.3427      2.00000
      8      -4.3206      2.00000
      9      -4.2908      2.00000
     10      -4.2708      2.00000
     11      -4.1388      2.00000
     12      -3.6079      2.00000
     13       3.7539      2.00000
     14       5.8018      2.00000
     15       6.5407      2.00000
     16       6.9643      2.00000
     17       8.3339      2.00000
     18       8.7533      2.00000
     19      13.7212      0.00000
     20      15.7686      0.00000
     21      18.6487      0.00000
     22      20.1772      0.00000
     23      20.6211      0.00000
     24      21.0263      0.00000
     25      23.2202      0.00000
     26      23.9579      0.00000
     27      25.1424      0.00000
     28      25.2334      0.00000
     29      29.1385      0.00000
     30      30.1996      0.00000
     31      34.4494      0.00000
     32      35.5855      0.00000

 k-point   259 :       0.2500   -0.0000   -0.3333
  band No.  band energies     occupation 
      1      -7.4651      2.00000
      2      -6.4587      2.00000
      3      -4.6469      2.00000
      4      -4.5934      2.00000
      5      -4.5455      2.00000
      6      -4.5455      2.00000
      7      -4.4790      2.00000
      8      -4.4097      2.00000
      9      -4.2718      2.00000
     10      -4.2403      2.00000
     11      -4.1238      2.00000
     12      -3.4945      2.00000
     13       2.2347      2.00000
     14       3.8822      2.00000
     15       6.8146      2.00000
     16       7.6922      2.00000
     17       8.8485      2.00000
     18       9.1926      2.00000
     19      14.9931      0.00000
     20      15.6128      0.00000
     21      18.2316      0.00000
     22      19.8573      0.00000
     23      20.9842      0.00000
     24      20.9958      0.00000
     25      21.5557      0.00000
     26      22.2427      0.00000
     27      26.4538      0.00000
     28      26.5345      0.00000
     29      28.5093      0.00000
     30      29.9378      0.00000
     31      33.4545      0.00000
     32      35.3624      0.00000

 k-point   260 :       0.3750   -0.0000   -0.3333
  band No.  band energies     occupation 
      1      -6.5454      2.00000
      2      -5.9419      2.00000
      3      -4.7461      2.00000
      4      -4.6598      2.00000
      5      -4.6467      2.00000
      6      -4.6168      2.00000
      7      -4.6085      2.00000
      8      -4.4270      2.00000
      9      -4.2025      2.00000
     10      -4.1835      2.00000
     11      -4.1360      2.00000
     12      -3.6359      2.00000
     13       1.0243      2.00000
     14       2.1327      2.00000
     15       7.5513      2.00000
     16       8.6156      2.00000
     17       9.1056      2.00000
     18       9.3290      2.00000
     19      15.1933      0.00000
     20      15.8582      0.00000
     21      17.4717      0.00000
     22      19.9468      0.00000
     23      20.0728      0.00000
     24      20.5058      0.00000
     25      20.5557      0.00000
     26      21.5436      0.00000
     27      26.6242      0.00000
     28      28.3703      0.00000
     29      30.7249      0.00000
     30      31.4833      0.00000
     31      31.7614      0.00000
     32      34.0010      0.00000

 k-point   261 :       0.5000   -0.0000   -0.3333
  band No.  band energies     occupation 
      1      -5.8041      2.00000
      2      -5.8041      2.00000
      3      -4.8021      2.00000
      4      -4.8021      2.00000
      5      -4.6789      2.00000
      6      -4.6789      2.00000
      7      -4.5160      2.00000
      8      -4.5160      2.00000
      9      -4.1650      2.00000
     10      -4.1650      2.00000
     11      -4.0163      2.00000
     12      -4.0163      2.00000
     13       1.0178      2.00000
     14       1.0178      2.00000
     15       8.4465      2.00000
     16       8.4465      2.00000
     17       9.2958      2.00000
     18       9.2958      2.00000
     19      15.4173      0.00000
     20      15.4173      0.00000
     21      18.4444      0.00000
     22      18.4444      0.00000
     23      19.6679      0.00000
     24      19.6679      0.00000
     25      21.2187      0.00000
     26      21.2187      0.00000
     27      27.7864      0.00000
     28      27.7864      0.00000
     29      32.1692      0.00000
     30      32.1692      0.00000
     31      33.4074      0.00000
     32      33.4074      0.00000

 k-point   262 :      -0.3750    0.0000   -0.3333
  band No.  band energies     occupation 
      1      -6.5454      2.00000
      2      -5.9419      2.00000
      3      -4.7461      2.00000
      4      -4.6598      2.00000
      5      -4.6467      2.00000
      6      -4.6168      2.00000
      7      -4.6085      2.00000
      8      -4.4270      2.00000
      9      -4.2025      2.00000
     10      -4.1835      2.00000
     11      -4.1360      2.00000
     12      -3.6359      2.00000
     13       1.0243      2.00000
     14       2.1327      2.00000
     15       7.5513      2.00000
     16       8.6156      2.00000
     17       9.1056      2.00000
     18       9.3290      2.00000
     19      15.1933      0.00000
     20      15.8582      0.00000
     21      17.4717      0.00000
     22      19.9468      0.00000
     23      20.0728      0.00000
     24      20.5058      0.00000
     25      20.5557      0.00000
     26      21.5436      0.00000
     27      26.6242      0.00000
     28      28.3703      0.00000
     29      30.7249      0.00000
     30      31.4833      0.00000
     31      31.7614      0.00000
     32      34.0010      0.00000

 k-point   263 :      -0.2500    0.0000   -0.3333
  band No.  band energies     occupation 
      1      -7.4651      2.00000
      2      -6.4587      2.00000
      3      -4.6469      2.00000
      4      -4.5934      2.00000
      5      -4.5455      2.00000
      6      -4.5455      2.00000
      7      -4.4790      2.00000
      8      -4.4097      2.00000
      9      -4.2718      2.00000
     10      -4.2403      2.00000
     11      -4.1238      2.00000
     12      -3.4945      2.00000
     13       2.2347      2.00000
     14       3.8822      2.00000
     15       6.8146      2.00000
     16       7.6922      2.00000
     17       8.8485      2.00000
     18       9.1926      2.00000
     19      14.9931      0.00000
     20      15.6128      0.00000
     21      18.2316      0.00000
     22      19.8573      0.00000
     23      20.9842      0.00000
     24      20.9958      0.00000
     25      21.5557      0.00000
     26      22.2427      0.00000
     27      26.4538      0.00000
     28      26.5345      0.00000
     29      28.5093      0.00000
     30      29.9378      0.00000
     31      33.4545      0.00000
     32      35.3624      0.00000

 k-point   264 :      -0.1250    0.0000   -0.3333
  band No.  band energies     occupation 
      1      -8.1017      2.00000
      2      -6.8846      2.00000
      3      -4.6443      2.00000
      4      -4.5352      2.00000
      5      -4.5149      2.00000
      6      -4.4350      2.00000
      7      -4.3427      2.00000
      8      -4.3206      2.00000
      9      -4.2908      2.00000
     10      -4.2708      2.00000
     11      -4.1388      2.00000
     12      -3.6079      2.00000
     13       3.7539      2.00000
     14       5.8018      2.00000
     15       6.5407      2.00000
     16       6.9643      2.00000
     17       8.3339      2.00000
     18       8.7533      2.00000
     19      13.7212      0.00000
     20      15.7686      0.00000
     21      18.6487      0.00000
     22      20.1772      0.00000
     23      20.6211      0.00000
     24      21.0263      0.00000
     25      23.2202      0.00000
     26      23.9579      0.00000
     27      25.1424      0.00000
     28      25.2334      0.00000
     29      29.1385      0.00000
     30      30.1996      0.00000
     31      34.4494      0.00000
     32      35.5855      0.00000

 k-point   265 :      -0.0000    0.1250   -0.3333
  band No.  band energies     occupation 
      1      -8.1017      2.00000
      2      -6.8846      2.00000
      3      -4.6443      2.00000
      4      -4.5352      2.00000
      5      -4.5149      2.00000
      6      -4.4350      2.00000
      7      -4.3427      2.00000
      8      -4.3206      2.00000
      9      -4.2908      2.00000
     10      -4.2708      2.00000
     11      -4.1388      2.00000
     12      -3.6079      2.00000
     13       3.7539      2.00000
     14       5.8018      2.00000
     15       6.5407      2.00000
     16       6.9643      2.00000
     17       8.3339      2.00000
     18       8.7533      2.00000
     19      13.7212      0.00000
     20      15.7686      0.00000
     21      18.6487      0.00000
     22      20.1772      0.00000
     23      20.6211      0.00000
     24      21.0263      0.00000
     25      23.2202      0.00000
     26      23.9579      0.00000
     27      25.1424      0.00000
     28      25.2334      0.00000
     29      29.1385      0.00000
     30      30.1996      0.00000
     31      34.4494      0.00000
     32      35.5855      0.00000

 k-point   266 :       0.1250    0.1250   -0.3333
  band No.  band energies     occupation 
      1      -7.8928      2.00000
      2      -6.7476      2.00000
      3      -4.6185      2.00000
      4      -4.5387      2.00000
      5      -4.5255      2.00000
      6      -4.4790      2.00000
      7      -4.4309      2.00000
      8      -4.3699      2.00000
      9      -4.2802      2.00000
     10      -4.2029      2.00000
     11      -4.1892      2.00000
     12      -3.4944      2.00000
     13       3.5724      2.00000
     14       5.4513      2.00000
     15       5.9052      2.00000
     16       7.2261      2.00000
     17       7.5373      2.00000
     18       9.3499      2.00000
     19      14.5625      0.00000
     20      16.1419      0.00000
     21      19.0765      0.00000
     22      19.8359      0.00000
     23      20.2940      0.00000
     24      20.2980      0.00000
     25      22.3755      0.00000
     26      23.3639      0.00000
     27      25.9188      0.00000
     28      25.9268      0.00000
     29      29.0578      0.00000
     30      30.3454      0.00000
     31      34.5798      0.00000
     32      35.5824      0.00000

 k-point   267 :       0.2500    0.1250   -0.3333
  band No.  band energies     occupation 
      1      -7.3087      2.00000
      2      -6.3978      2.00000
      3      -4.6232      2.00000
      4      -4.6086      2.00000
      5      -4.5675      2.00000
      6      -4.5224      2.00000
      7      -4.5150      2.00000
      8      -4.4267      2.00000
      9      -4.3072      2.00000
     10      -4.1658      2.00000
     11      -4.1333      2.00000
     12      -3.3200      2.00000
     13       2.4440      2.00000
     14       3.9963      2.00000
     15       5.8575      2.00000
     16       7.5946      2.00000
     17       7.7419      2.00000
     18       9.4693      2.00000
     19      15.9277      0.00000
     20      16.3488      0.00000
     21      18.0459      0.00000
     22      19.3236      0.00000
     23      20.4453      0.00000
     24      20.4682      0.00000
     25      21.1523      0.00000
     26      22.1092      0.00000
     27      27.3239      0.00000
     28      27.5015      0.00000
     29      28.5324      0.00000
     30      31.3664      0.00000
     31      32.4953      0.00000
     32      34.7028      0.00000

 k-point   268 :       0.3750    0.1250   -0.3333
  band No.  band energies     occupation 
      1      -6.5300      2.00000
      2      -6.0362      2.00000
      3      -4.7195      2.00000
      4      -4.7029      2.00000
      5      -4.5867      2.00000
      6      -4.5828      2.00000
      7      -4.5156      2.00000
      8      -4.4285      2.00000
      9      -4.1857      2.00000
     10      -4.1491      2.00000
     11      -4.0747      2.00000
     12      -3.3461      2.00000
     13       1.2296      2.00000
     14       2.3094      2.00000
     15       6.7143      2.00000
     16       8.1611      2.00000
     17       8.3294      2.00000
     18       8.9411      2.00000
     19      16.0288      0.00000
     20      16.4985      0.00000
     21      17.0321      0.00000
     22      18.0798      0.00000
     23      20.8793      0.00000
     24      20.9093      0.00000
     25      20.9386      0.00000
     26      21.4575      0.00000
     27      27.1737      0.00000
     28      29.5179      0.00000
     29      30.3104      0.00000
     30      30.5706      0.00000
     31      33.1879      0.00000
     32      33.6524      0.00000

 k-point   269 :       0.5000    0.1250   -0.3333
  band No.  band energies     occupation 
      1      -5.9998      2.00000
      2      -5.9998      2.00000
      3      -4.7438      2.00000
      4      -4.7438      2.00000
      5      -4.6112      2.00000
      6      -4.6112      2.00000
      7      -4.4436      2.00000
      8      -4.4436      2.00000
      9      -4.1348      2.00000
     10      -4.1348      2.00000
     11      -3.7669      2.00000
     12      -3.7669      2.00000
     13       1.1875      2.00000
     14       1.1875      2.00000
     15       7.8489      2.00000
     16       7.8489      2.00000
     17       8.5762      2.00000
     18       8.5762      2.00000
     19      15.9036      0.00000
     20      15.9036      0.00000
     21      17.4587      0.00000
     22      17.4587      0.00000
     23      20.6137      0.00000
     24      20.6137      0.00000
     25      21.4530      0.00000
     26      21.4530      0.00000
     27      27.9966      0.00000
     28      27.9966      0.00000
     29      31.5879      0.00000
     30      31.5879      0.00000
     31      34.6141      0.00000
     32      34.6141      0.00000

 k-point   270 :      -0.3750    0.1250   -0.3333
  band No.  band energies     occupation 
      1      -6.5300      2.00000
      2      -6.0362      2.00000
      3      -4.7195      2.00000
      4      -4.7029      2.00000
      5      -4.5867      2.00000
      6      -4.5828      2.00000
      7      -4.5156      2.00000
      8      -4.4285      2.00000
      9      -4.1857      2.00000
     10      -4.1491      2.00000
     11      -4.0747      2.00000
     12      -3.3461      2.00000
     13       1.2296      2.00000
     14       2.3094      2.00000
     15       6.7143      2.00000
     16       8.1611      2.00000
     17       8.3294      2.00000
     18       8.9411      2.00000
     19      16.0288      0.00000
     20      16.4985      0.00000
     21      17.0321      0.00000
     22      18.0798      0.00000
     23      20.8793      0.00000
     24      20.9093      0.00000
     25      20.9386      0.00000
     26      21.4575      0.00000
     27      27.1737      0.00000
     28      29.5179      0.00000
     29      30.3104      0.00000
     30      30.5706      0.00000
     31      33.1879      0.00000
     32      33.6524      0.00000

 k-point   271 :      -0.2500    0.1250   -0.3333
  band No.  band energies     occupation 
      1      -7.3087      2.00000
      2      -6.3978      2.00000
      3      -4.6232      2.00000
      4      -4.6086      2.00000
      5      -4.5675      2.00000
      6      -4.5224      2.00000
      7      -4.5150      2.00000
      8      -4.4267      2.00000
      9      -4.3072      2.00000
     10      -4.1658      2.00000
     11      -4.1333      2.00000
     12      -3.3200      2.00000
     13       2.4440      2.00000
     14       3.9963      2.00000
     15       5.8575      2.00000
     16       7.5946      2.00000
     17       7.7419      2.00000
     18       9.4693      2.00000
     19      15.9277      0.00000
     20      16.3488      0.00000
     21      18.0459      0.00000
     22      19.3236      0.00000
     23      20.4453      0.00000
     24      20.4682      0.00000
     25      21.1523      0.00000
     26      22.1092      0.00000
     27      27.3239      0.00000
     28      27.5015      0.00000
     29      28.5324      0.00000
     30      31.3664      0.00000
     31      32.4953      0.00000
     32      34.7028      0.00000

 k-point   272 :      -0.1250    0.1250   -0.3333
  band No.  band energies     occupation 
      1      -7.8928      2.00000
      2      -6.7476      2.00000
      3      -4.6185      2.00000
      4      -4.5387      2.00000
      5      -4.5255      2.00000
      6      -4.4790      2.00000
      7      -4.4309      2.00000
      8      -4.3699      2.00000
      9      -4.2802      2.00000
     10      -4.2029      2.00000
     11      -4.1892      2.00000
     12      -3.4944      2.00000
     13       3.5724      2.00000
     14       5.4513      2.00000
     15       5.9052      2.00000
     16       7.2261      2.00000
     17       7.5373      2.00000
     18       9.3499      2.00000
     19      14.5625      0.00000
     20      16.1419      0.00000
     21      19.0765      0.00000
     22      19.8359      0.00000
     23      20.2940      0.00000
     24      20.2980      0.00000
     25      22.3755      0.00000
     26      23.3639      0.00000
     27      25.9188      0.00000
     28      25.9268      0.00000
     29      29.0578      0.00000
     30      30.3454      0.00000
     31      34.5798      0.00000
     32      35.5824      0.00000

 k-point   273 :      -0.0000    0.2500   -0.3333
  band No.  band energies     occupation 
      1      -7.4651      2.00000
      2      -6.4587      2.00000
      3      -4.6469      2.00000
      4      -4.5934      2.00000
      5      -4.5455      2.00000
      6      -4.5455      2.00000
      7      -4.4790      2.00000
      8      -4.4097      2.00000
      9      -4.2718      2.00000
     10      -4.2403      2.00000
     11      -4.1238      2.00000
     12      -3.4945      2.00000
     13       2.2347      2.00000
     14       3.8822      2.00000
     15       6.8146      2.00000
     16       7.6922      2.00000
     17       8.8485      2.00000
     18       9.1926      2.00000
     19      14.9931      0.00000
     20      15.6128      0.00000
     21      18.2316      0.00000
     22      19.8573      0.00000
     23      20.9842      0.00000
     24      20.9958      0.00000
     25      21.5557      0.00000
     26      22.2427      0.00000
     27      26.4538      0.00000
     28      26.5345      0.00000
     29      28.5093      0.00000
     30      29.9378      0.00000
     31      33.4545      0.00000
     32      35.3624      0.00000

 k-point   274 :       0.1250    0.2500   -0.3333
  band No.  band energies     occupation 
      1      -7.3087      2.00000
      2      -6.3978      2.00000
      3      -4.6232      2.00000
      4      -4.6086      2.00000
      5      -4.5675      2.00000
      6      -4.5224      2.00000
      7      -4.5150      2.00000
      8      -4.4267      2.00000
      9      -4.3072      2.00000
     10      -4.1658      2.00000
     11      -4.1333      2.00000
     12      -3.3200      2.00000
     13       2.4440      2.00000
     14       3.9963      2.00000
     15       5.8575      2.00000
     16       7.5946      2.00000
     17       7.7419      2.00000
     18       9.4693      2.00000
     19      15.9277      0.00000
     20      16.3488      0.00000
     21      18.0459      0.00000
     22      19.3236      0.00000
     23      20.4453      0.00000
     24      20.4682      0.00000
     25      21.1523      0.00000
     26      22.1092      0.00000
     27      27.3239      0.00000
     28      27.5015      0.00000
     29      28.5324      0.00000
     30      31.3664      0.00000
     31      32.4953      0.00000
     32      34.7028      0.00000

 k-point   275 :       0.2500    0.2500   -0.3333
  band No.  band energies     occupation 
      1      -6.9188      2.00000
      2      -6.2827      2.00000
      3      -4.6141      2.00000
      4      -4.6023      2.00000
      5      -4.5524      2.00000
      6      -4.5120      2.00000
      7      -4.4939      2.00000
      8      -4.4902      2.00000
      9      -4.2826      2.00000
     10      -4.1803      2.00000
     11      -3.9561      2.00000
     12      -2.9568      2.00000
     13       2.7495      2.00000
     14       3.9210      2.00000
     15       4.3091      2.00000
     16       6.2423      2.00000
     17       7.9556      2.00000
     18       9.0127      2.00000
     19      15.9363      0.00000
     20      17.1329      0.00000
     21      17.9898      0.00000
     22      18.5776      0.00000
     23      19.7878      0.00000
     24      20.4278      0.00000
     25      21.7723      0.00000
     26      21.8028      0.00000
     27      26.7351      0.00000
     28      29.3282      0.00000
     29      30.1423      0.00000
     30      31.7308      0.00000
     31      32.6867      0.00000
     32      34.6740      0.00000

 k-point   276 :       0.3750    0.2500   -0.3333
  band No.  band energies     occupation 
      1      -6.5243      2.00000
      2      -6.2352      2.00000
      3      -4.6364      2.00000
      4      -4.6225      2.00000
      5      -4.5192      2.00000
      6      -4.5105      2.00000
      7      -4.4356      2.00000
      8      -4.4065      2.00000
      9      -4.1801      2.00000
     10      -4.1543      2.00000
     11      -3.6093      2.00000
     12      -2.6707      2.00000
     13       1.8640      2.00000
     14       2.7670      2.00000
     15       4.7264      2.00000
     16       6.2836      2.00000
     17       7.9995      2.00000
     18       8.0134      2.00000
     19      14.9527      0.00000
     20      15.8703      0.00000
     21      18.0964      0.00000
     22      18.8122      0.00000
     23      20.3265      0.00000
     24      21.2380      0.00000
     25      21.8207      0.00000
     26      22.1788      0.00000
     27      26.9214      0.00000
     28      28.2001      0.00000
     29      31.7938      0.00000
     30      32.9816      0.00000
     31      34.0292      0.00000
     32      34.2710      0.00000

 k-point   277 :       0.5000    0.2500   -0.3333
  band No.  band energies     occupation 
      1      -6.3042      2.00000
      2      -6.3042      2.00000
      3      -4.6488      2.00000
      4      -4.6488      2.00000
      5      -4.4984      2.00000
      6      -4.4984      2.00000
      7      -4.3888      2.00000
      8      -4.3888      2.00000
      9      -4.1248      2.00000
     10      -4.1248      2.00000
     11      -2.9613      2.00000
     12      -2.9613      2.00000
     13       1.7003      2.00000
     14       1.7003      2.00000
     15       5.9397      2.00000
     16       5.9397      2.00000
     17       7.6613      2.00000
     18       7.6613      2.00000
     19      14.9263      0.00000
     20      14.9263      0.00000
     21      18.3619      0.00000
     22      18.3619      0.00000
     23      21.2674      0.00000
     24      21.2674      0.00000
     25      22.0631      0.00000
     26      22.0631      0.00000
     27      27.2534      0.00000
     28      27.2534      0.00000
     29      33.2110      0.00000
     30      33.2110      0.00000
     31      34.9124      0.00000
     32      34.9124      0.00000

 k-point   278 :      -0.3750    0.2500   -0.3333
  band No.  band energies     occupation 
      1      -6.5243      2.00000
      2      -6.2352      2.00000
      3      -4.6364      2.00000
      4      -4.6225      2.00000
      5      -4.5192      2.00000
      6      -4.5105      2.00000
      7      -4.4356      2.00000
      8      -4.4065      2.00000
      9      -4.1801      2.00000
     10      -4.1543      2.00000
     11      -3.6093      2.00000
     12      -2.6707      2.00000
     13       1.8640      2.00000
     14       2.7670      2.00000
     15       4.7264      2.00000
     16       6.2836      2.00000
     17       7.9995      2.00000
     18       8.0134      2.00000
     19      14.9527      0.00000
     20      15.8703      0.00000
     21      18.0964      0.00000
     22      18.8122      0.00000
     23      20.3265      0.00000
     24      21.2380      0.00000
     25      21.8207      0.00000
     26      22.1788      0.00000
     27      26.9214      0.00000
     28      28.2001      0.00000
     29      31.7938      0.00000
     30      32.9816      0.00000
     31      34.0292      0.00000
     32      34.2710      0.00000

 k-point   279 :      -0.2500    0.2500   -0.3333
  band No.  band energies     occupation 
      1      -6.9188      2.00000
      2      -6.2827      2.00000
      3      -4.6141      2.00000
      4      -4.6023      2.00000
      5      -4.5524      2.00000
      6      -4.5120      2.00000
      7      -4.4939      2.00000
      8      -4.4902      2.00000
      9      -4.2826      2.00000
     10      -4.1803      2.00000
     11      -3.9561      2.00000
     12      -2.9568      2.00000
     13       2.7495      2.00000
     14       3.9210      2.00000
     15       4.3091      2.00000
     16       6.2423      2.00000
     17       7.9556      2.00000
     18       9.0127      2.00000
     19      15.9363      0.00000
     20      17.1329      0.00000
     21      17.9898      0.00000
     22      18.5776      0.00000
     23      19.7878      0.00000
     24      20.4278      0.00000
     25      21.7723      0.00000
     26      21.8028      0.00000
     27      26.7351      0.00000
     28      29.3282      0.00000
     29      30.1423      0.00000
     30      31.7308      0.00000
     31      32.6867      0.00000
     32      34.6740      0.00000

 k-point   280 :      -0.1250    0.2500   -0.3333
  band No.  band energies     occupation 
      1      -7.3087      2.00000
      2      -6.3978      2.00000
      3      -4.6232      2.00000
      4      -4.6086      2.00000
      5      -4.5675      2.00000
      6      -4.5224      2.00000
      7      -4.5150      2.00000
      8      -4.4267      2.00000
      9      -4.3072      2.00000
     10      -4.1658      2.00000
     11      -4.1333      2.00000
     12      -3.3200      2.00000
     13       2.4440      2.00000
     14       3.9963      2.00000
     15       5.8575      2.00000
     16       7.5946      2.00000
     17       7.7419      2.00000
     18       9.4693      2.00000
     19      15.9277      0.00000
     20      16.3488      0.00000
     21      18.0459      0.00000
     22      19.3236      0.00000
     23      20.4453      0.00000
     24      20.4682      0.00000
     25      21.1523      0.00000
     26      22.1092      0.00000
     27      27.3239      0.00000
     28      27.5015      0.00000
     29      28.5324      0.00000
     30      31.3664      0.00000
     31      32.4953      0.00000
     32      34.7028      0.00000

 k-point   281 :      -0.0000    0.3750   -0.3333
  band No.  band energies     occupation 
      1      -6.5454      2.00000
      2      -5.9419      2.00000
      3      -4.7461      2.00000
      4      -4.6598      2.00000
      5      -4.6467      2.00000
      6      -4.6168      2.00000
      7      -4.6085      2.00000
      8      -4.4270      2.00000
      9      -4.2025      2.00000
     10      -4.1835      2.00000
     11      -4.1360      2.00000
     12      -3.6359      2.00000
     13       1.0243      2.00000
     14       2.1327      2.00000
     15       7.5513      2.00000
     16       8.6156      2.00000
     17       9.1056      2.00000
     18       9.3290      2.00000
     19      15.1933      0.00000
     20      15.8582      0.00000
     21      17.4717      0.00000
     22      19.9468      0.00000
     23      20.0728      0.00000
     24      20.5058      0.00000
     25      20.5557      0.00000
     26      21.5436      0.00000
     27      26.6242      0.00000
     28      28.3703      0.00000
     29      30.7249      0.00000
     30      31.4833      0.00000
     31      31.7614      0.00000
     32      34.0010      0.00000

 k-point   282 :       0.1250    0.3750   -0.3333
  band No.  band energies     occupation 
      1      -6.5300      2.00000
      2      -6.0362      2.00000
      3      -4.7195      2.00000
      4      -4.7029      2.00000
      5      -4.5867      2.00000
      6      -4.5828      2.00000
      7      -4.5156      2.00000
      8      -4.4285      2.00000
      9      -4.1857      2.00000
     10      -4.1491      2.00000
     11      -4.0747      2.00000
     12      -3.3461      2.00000
     13       1.2296      2.00000
     14       2.3094      2.00000
     15       6.7143      2.00000
     16       8.1611      2.00000
     17       8.3294      2.00000
     18       8.9411      2.00000
     19      16.0288      0.00000
     20      16.4985      0.00000
     21      17.0321      0.00000
     22      18.0798      0.00000
     23      20.8793      0.00000
     24      20.9093      0.00000
     25      20.9386      0.00000
     26      21.4575      0.00000
     27      27.1737      0.00000
     28      29.5179      0.00000
     29      30.3104      0.00000
     30      30.5706      0.00000
     31      33.1879      0.00000
     32      33.6524      0.00000

 k-point   283 :       0.2500    0.3750   -0.3333
  band No.  band energies     occupation 
      1      -6.5243      2.00000
      2      -6.2352      2.00000
      3      -4.6364      2.00000
      4      -4.6225      2.00000
      5      -4.5192      2.00000
      6      -4.5105      2.00000
      7      -4.4356      2.00000
      8      -4.4065      2.00000
      9      -4.1801      2.00000
     10      -4.1543      2.00000
     11      -3.6093      2.00000
     12      -2.6707      2.00000
     13       1.8640      2.00000
     14       2.7670      2.00000
     15       4.7264      2.00000
     16       6.2836      2.00000
     17       7.9995      2.00000
     18       8.0134      2.00000
     19      14.9527      0.00000
     20      15.8703      0.00000
     21      18.0964      0.00000
     22      18.8122      0.00000
     23      20.3265      0.00000
     24      21.2380      0.00000
     25      21.8207      0.00000
     26      22.1788      0.00000
     27      26.9214      0.00000
     28      28.2001      0.00000
     29      31.7938      0.00000
     30      32.9816      0.00000
     31      34.0292      0.00000
     32      34.2710      0.00000

 k-point   284 :       0.3750    0.3750   -0.3333
  band No.  band energies     occupation 
      1      -6.5374      2.00000
      2      -6.4130      2.00000
      3      -4.6214      2.00000
      4      -4.5990      2.00000
      5      -4.4711      2.00000
      6      -4.4328      2.00000
      7      -4.3464      2.00000
      8      -4.3118      2.00000
      9      -4.1415      2.00000
     10      -4.1303      2.00000
     11      -2.7879      2.00000
     12      -1.9653      2.00000
     13       2.9348      2.00000
     14       2.9464      2.00000
     15       2.9466      2.00000
     16       5.0676      2.00000
     17       6.5673      2.00000
     18       7.2683      2.00000
     19      14.1490      0.00000
     20      14.9009      0.00000
     21      19.3252      0.00000
     22      19.4083      0.00000
     23      19.7325      0.00000
     24      21.4142      0.00000
     25      22.7225      0.00000
     26      22.9349      0.00000
     27      26.9215      0.00000
     28      27.0234      0.00000
     29      32.4554      0.00000
     30      33.0894      0.00000
     31      36.3868      0.00000
     32      37.8174      0.00000

 k-point   285 :       0.5000    0.3750   -0.3333
  band No.  band energies     occupation 
      1      -6.5136      2.00000
      2      -6.5136      2.00000
      3      -4.6196      2.00000
      4      -4.6196      2.00000
      5      -4.4140      2.00000
      6      -4.4140      2.00000
      7      -4.3133      2.00000
      8      -4.3133      2.00000
      9      -4.0998      2.00000
     10      -4.0998      2.00000
     11      -1.9512      2.00000
     12      -1.9512      2.00000
     13       2.3838      2.00000
     14       2.3838      2.00000
     15       4.3370      2.00000
     16       4.3370      2.00000
     17       6.2410      2.00000
     18       6.2410      2.00000
     19      14.2869      0.00000
     20      14.2869      0.00000
     21      19.1716      0.00000
     22      19.1716      0.00000
     23      21.1329      0.00000
     24      21.1329      0.00000
     25      22.7689      0.00000
     26      22.7689      0.00000
     27      27.0570      0.00000
     28      27.0570      0.00000
     29      32.8942      0.00000
     30      32.8942      0.00000
     31      38.9032      0.00000
     32      38.9032      0.00000

 k-point   286 :      -0.3750    0.3750   -0.3333
  band No.  band energies     occupation 
      1      -6.5374      2.00000
      2      -6.4130      2.00000
      3      -4.6214      2.00000
      4      -4.5990      2.00000
      5      -4.4711      2.00000
      6      -4.4328      2.00000
      7      -4.3464      2.00000
      8      -4.3118      2.00000
      9      -4.1415      2.00000
     10      -4.1303      2.00000
     11      -2.7879      2.00000
     12      -1.9653      2.00000
     13       2.9348      2.00000
     14       2.9464      2.00000
     15       2.9466      2.00000
     16       5.0676      2.00000
     17       6.5673      2.00000
     18       7.2683      2.00000
     19      14.1490      0.00000
     20      14.9009      0.00000
     21      19.3252      0.00000
     22      19.4083      0.00000
     23      19.7325      0.00000
     24      21.4142      0.00000
     25      22.7225      0.00000
     26      22.9349      0.00000
     27      26.9215      0.00000
     28      27.0234      0.00000
     29      32.4554      0.00000
     30      33.0894      0.00000
     31      36.3868      0.00000
     32      37.8174      0.00000

 k-point   287 :      -0.2500    0.3750   -0.3333
  band No.  band energies     occupation 
      1      -6.5243      2.00000
      2      -6.2352      2.00000
      3      -4.6364      2.00000
      4      -4.6225      2.00000
      5      -4.5192      2.00000
      6      -4.5105      2.00000
      7      -4.4356      2.00000
      8      -4.4065      2.00000
      9      -4.1801      2.00000
     10      -4.1543      2.00000
     11      -3.6093      2.00000
     12      -2.6707      2.00000
     13       1.8640      2.00000
     14       2.7670      2.00000
     15       4.7264      2.00000
     16       6.2836      2.00000
     17       7.9995      2.00000
     18       8.0134      2.00000
     19      14.9527      0.00000
     20      15.8703      0.00000
     21      18.0964      0.00000
     22      18.8122      0.00000
     23      20.3265      0.00000
     24      21.2380      0.00000
     25      21.8207      0.00000
     26      22.1788      0.00000
     27      26.9214      0.00000
     28      28.2001      0.00000
     29      31.7938      0.00000
     30      32.9816      0.00000
     31      34.0292      0.00000
     32      34.2710      0.00000

 k-point   288 :      -0.1250    0.3750   -0.3333
  band No.  band energies     occupation 
      1      -6.5300      2.00000
      2      -6.0362      2.00000
      3      -4.7195      2.00000
      4      -4.7029      2.00000
      5      -4.5867      2.00000
      6      -4.5828      2.00000
      7      -4.5156      2.00000
      8      -4.4285      2.00000
      9      -4.1857      2.00000
     10      -4.1491      2.00000
     11      -4.0747      2.00000
     12      -3.3461      2.00000
     13       1.2296      2.00000
     14       2.3094      2.00000
     15       6.7143      2.00000
     16       8.1611      2.00000
     17       8.3294      2.00000
     18       8.9411      2.00000
     19      16.0288      0.00000
     20      16.4985      0.00000
     21      17.0321      0.00000
     22      18.0798      0.00000
     23      20.8793      0.00000
     24      20.9093      0.00000
     25      20.9386      0.00000
     26      21.4575      0.00000
     27      27.1737      0.00000
     28      29.5179      0.00000
     29      30.3104      0.00000
     30      30.5706      0.00000
     31      33.1879      0.00000
     32      33.6524      0.00000

 k-point   289 :      -0.0000    0.5000   -0.3333
  band No.  band energies     occupation 
      1      -5.8041      2.00000
      2      -5.8041      2.00000
      3      -4.8021      2.00000
      4      -4.8021      2.00000
      5      -4.6789      2.00000
      6      -4.6789      2.00000
      7      -4.5160      2.00000
      8      -4.5160      2.00000
      9      -4.1650      2.00000
     10      -4.1650      2.00000
     11      -4.0163      2.00000
     12      -4.0163      2.00000
     13       1.0178      2.00000
     14       1.0178      2.00000
     15       8.4465      2.00000
     16       8.4465      2.00000
     17       9.2958      2.00000
     18       9.2958      2.00000
     19      15.4173      0.00000
     20      15.4173      0.00000
     21      18.4444      0.00000
     22      18.4444      0.00000
     23      19.6679      0.00000
     24      19.6679      0.00000
     25      21.2187      0.00000
     26      21.2187      0.00000
     27      27.7864      0.00000
     28      27.7864      0.00000
     29      32.1692      0.00000
     30      32.1692      0.00000
     31      33.4074      0.00000
     32      33.4074      0.00000

 k-point   290 :       0.1250    0.5000   -0.3333
  band No.  band energies     occupation 
      1      -5.9998      2.00000
      2      -5.9998      2.00000
      3      -4.7438      2.00000
      4      -4.7438      2.00000
      5      -4.6112      2.00000
      6      -4.6112      2.00000
      7      -4.4436      2.00000
      8      -4.4436      2.00000
      9      -4.1348      2.00000
     10      -4.1348      2.00000
     11      -3.7669      2.00000
     12      -3.7669      2.00000
     13       1.1875      2.00000
     14       1.1875      2.00000
     15       7.8489      2.00000
     16       7.8489      2.00000
     17       8.5762      2.00000
     18       8.5762      2.00000
     19      15.9036      0.00000
     20      15.9036      0.00000
     21      17.4587      0.00000
     22      17.4587      0.00000
     23      20.6137      0.00000
     24      20.6137      0.00000
     25      21.4530      0.00000
     26      21.4530      0.00000
     27      27.9966      0.00000
     28      27.9966      0.00000
     29      31.5879      0.00000
     30      31.5879      0.00000
     31      34.6141      0.00000
     32      34.6141      0.00000

 k-point   291 :       0.2500    0.5000   -0.3333
  band No.  band energies     occupation 
      1      -6.3042      2.00000
      2      -6.3042      2.00000
      3      -4.6488      2.00000
      4      -4.6488      2.00000
      5      -4.4984      2.00000
      6      -4.4984      2.00000
      7      -4.3888      2.00000
      8      -4.3888      2.00000
      9      -4.1248      2.00000
     10      -4.1248      2.00000
     11      -2.9613      2.00000
     12      -2.9613      2.00000
     13       1.7003      2.00000
     14       1.7003      2.00000
     15       5.9397      2.00000
     16       5.9397      2.00000
     17       7.6613      2.00000
     18       7.6613      2.00000
     19      14.9263      0.00000
     20      14.9263      0.00000
     21      18.3619      0.00000
     22      18.3619      0.00000
     23      21.2674      0.00000
     24      21.2674      0.00000
     25      22.0631      0.00000
     26      22.0631      0.00000
     27      27.2534      0.00000
     28      27.2534      0.00000
     29      33.2110      0.00000
     30      33.2110      0.00000
     31      34.9124      0.00000
     32      34.9124      0.00000

 k-point   292 :       0.3750    0.5000   -0.3333
  band No.  band energies     occupation 
      1      -6.5136      2.00000
      2      -6.5136      2.00000
      3      -4.6196      2.00000
      4      -4.6196      2.00000
      5      -4.4140      2.00000
      6      -4.4140      2.00000
      7      -4.3133      2.00000
      8      -4.3133      2.00000
      9      -4.0998      2.00000
     10      -4.0998      2.00000
     11      -1.9512      2.00000
     12      -1.9512      2.00000
     13       2.3838      2.00000
     14       2.3838      2.00000
     15       4.3370      2.00000
     16       4.3370      2.00000
     17       6.2410      2.00000
     18       6.2410      2.00000
     19      14.2869      0.00000
     20      14.2869      0.00000
     21      19.1716      0.00000
     22      19.1716      0.00000
     23      21.1329      0.00000
     24      21.1329      0.00000
     25      22.7689      0.00000
     26      22.7689      0.00000
     27      27.0570      0.00000
     28      27.0570      0.00000
     29      32.8942      0.00000
     30      32.8942      0.00000
     31      38.9032      0.00000
     32      38.9032      0.00000

 k-point   293 :       0.5000    0.5000   -0.3333
  band No.  band energies     occupation 
      1      -6.5856      2.00000
      2      -6.5856      2.00000
      3      -4.6205      2.00000
      4      -4.6205      2.00000
      5      -4.3698      2.00000
      6      -4.3698      2.00000
      7      -4.3049      2.00000
      8      -4.3049      2.00000
      9      -4.0685      2.00000
     10      -4.0685      2.00000
     11      -1.3758      2.00000
     12      -1.3758      2.00000
     13       2.3956      2.00000
     14       2.3956      2.00000
     15       4.6034      2.00000
     16       4.6034      2.00000
     17       4.8467      2.00000
     18       4.8467      2.00000
     19      14.1687      0.00000
     20      14.1687      0.00000
     21      19.2302      0.00000
     22      19.2302      0.00000
     23      21.7479      0.00000
     24      21.7479      0.00000
     25      22.2151      0.00000
     26      22.2151      0.00000
     27      27.4059      0.00000
     28      27.4059      0.00000
     29      32.8557      0.00000
     30      32.8557      0.00000
     31      39.8534      0.00000
     32      39.8534      0.00000

 k-point   294 :      -0.3750    0.5000   -0.3333
  band No.  band energies     occupation 
      1      -6.5136      2.00000
      2      -6.5136      2.00000
      3      -4.6196      2.00000
      4      -4.6196      2.00000
      5      -4.4140      2.00000
      6      -4.4140      2.00000
      7      -4.3133      2.00000
      8      -4.3133      2.00000
      9      -4.0998      2.00000
     10      -4.0998      2.00000
     11      -1.9512      2.00000
     12      -1.9512      2.00000
     13       2.3838      2.00000
     14       2.3838      2.00000
     15       4.3370      2.00000
     16       4.3370      2.00000
     17       6.2410      2.00000
     18       6.2410      2.00000
     19      14.2869      0.00000
     20      14.2869      0.00000
     21      19.1716      0.00000
     22      19.1716      0.00000
     23      21.1329      0.00000
     24      21.1329      0.00000
     25      22.7689      0.00000
     26      22.7689      0.00000
     27      27.0570      0.00000
     28      27.0570      0.00000
     29      32.8942      0.00000
     30      32.8942      0.00000
     31      38.9032      0.00000
     32      38.9032      0.00000

 k-point   295 :      -0.2500    0.5000   -0.3333
  band No.  band energies     occupation 
      1      -6.3042      2.00000
      2      -6.3042      2.00000
      3      -4.6488      2.00000
      4      -4.6488      2.00000
      5      -4.4984      2.00000
      6      -4.4984      2.00000
      7      -4.3888      2.00000
      8      -4.3888      2.00000
      9      -4.1248      2.00000
     10      -4.1248      2.00000
     11      -2.9613      2.00000
     12      -2.9613      2.00000
     13       1.7003      2.00000
     14       1.7003      2.00000
     15       5.9397      2.00000
     16       5.9397      2.00000
     17       7.6613      2.00000
     18       7.6613      2.00000
     19      14.9263      0.00000
     20      14.9263      0.00000
     21      18.3619      0.00000
     22      18.3619      0.00000
     23      21.2674      0.00000
     24      21.2674      0.00000
     25      22.0631      0.00000
     26      22.0631      0.00000
     27      27.2534      0.00000
     28      27.2534      0.00000
     29      33.2110      0.00000
     30      33.2110      0.00000
     31      34.9124      0.00000
     32      34.9124      0.00000

 k-point   296 :      -0.1250    0.5000   -0.3333
  band No.  band energies     occupation 
      1      -5.9998      2.00000
      2      -5.9998      2.00000
      3      -4.7438      2.00000
      4      -4.7438      2.00000
      5      -4.6112      2.00000
      6      -4.6112      2.00000
      7      -4.4436      2.00000
      8      -4.4436      2.00000
      9      -4.1348      2.00000
     10      -4.1348      2.00000
     11      -3.7669      2.00000
     12      -3.7669      2.00000
     13       1.1875      2.00000
     14       1.1875      2.00000
     15       7.8489      2.00000
     16       7.8489      2.00000
     17       8.5762      2.00000
     18       8.5762      2.00000
     19      15.9036      0.00000
     20      15.9036      0.00000
     21      17.4587      0.00000
     22      17.4587      0.00000
     23      20.6137      0.00000
     24      20.6137      0.00000
     25      21.4530      0.00000
     26      21.4530      0.00000
     27      27.9966      0.00000
     28      27.9966      0.00000
     29      31.5879      0.00000
     30      31.5879      0.00000
     31      34.6141      0.00000
     32      34.6141      0.00000

 k-point   297 :       0.0000   -0.3750   -0.3333
  band No.  band energies     occupation 
      1      -6.5454      2.00000
      2      -5.9419      2.00000
      3      -4.7461      2.00000
      4      -4.6598      2.00000
      5      -4.6467      2.00000
      6      -4.6168      2.00000
      7      -4.6085      2.00000
      8      -4.4270      2.00000
      9      -4.2025      2.00000
     10      -4.1835      2.00000
     11      -4.1360      2.00000
     12      -3.6359      2.00000
     13       1.0243      2.00000
     14       2.1327      2.00000
     15       7.5513      2.00000
     16       8.6156      2.00000
     17       9.1056      2.00000
     18       9.3290      2.00000
     19      15.1933      0.00000
     20      15.8582      0.00000
     21      17.4717      0.00000
     22      19.9468      0.00000
     23      20.0728      0.00000
     24      20.5058      0.00000
     25      20.5557      0.00000
     26      21.5436      0.00000
     27      26.6242      0.00000
     28      28.3703      0.00000
     29      30.7249      0.00000
     30      31.4833      0.00000
     31      31.7614      0.00000
     32      34.0010      0.00000

 k-point   298 :       0.1250   -0.3750   -0.3333
  band No.  band energies     occupation 
      1      -6.5300      2.00000
      2      -6.0362      2.00000
      3      -4.7195      2.00000
      4      -4.7029      2.00000
      5      -4.5867      2.00000
      6      -4.5828      2.00000
      7      -4.5156      2.00000
      8      -4.4285      2.00000
      9      -4.1857      2.00000
     10      -4.1491      2.00000
     11      -4.0747      2.00000
     12      -3.3461      2.00000
     13       1.2296      2.00000
     14       2.3094      2.00000
     15       6.7143      2.00000
     16       8.1611      2.00000
     17       8.3294      2.00000
     18       8.9411      2.00000
     19      16.0288      0.00000
     20      16.4985      0.00000
     21      17.0321      0.00000
     22      18.0798      0.00000
     23      20.8793      0.00000
     24      20.9093      0.00000
     25      20.9386      0.00000
     26      21.4575      0.00000
     27      27.1737      0.00000
     28      29.5179      0.00000
     29      30.3104      0.00000
     30      30.5706      0.00000
     31      33.1879      0.00000
     32      33.6524      0.00000

 k-point   299 :       0.2500   -0.3750   -0.3333
  band No.  band energies     occupation 
      1      -6.5243      2.00000
      2      -6.2352      2.00000
      3      -4.6364      2.00000
      4      -4.6225      2.00000
      5      -4.5192      2.00000
      6      -4.5105      2.00000
      7      -4.4356      2.00000
      8      -4.4065      2.00000
      9      -4.1801      2.00000
     10      -4.1543      2.00000
     11      -3.6093      2.00000
     12      -2.6707      2.00000
     13       1.8640      2.00000
     14       2.7670      2.00000
     15       4.7264      2.00000
     16       6.2836      2.00000
     17       7.9995      2.00000
     18       8.0134      2.00000
     19      14.9527      0.00000
     20      15.8703      0.00000
     21      18.0964      0.00000
     22      18.8122      0.00000
     23      20.3265      0.00000
     24      21.2380      0.00000
     25      21.8207      0.00000
     26      22.1788      0.00000
     27      26.9214      0.00000
     28      28.2001      0.00000
     29      31.7938      0.00000
     30      32.9816      0.00000
     31      34.0292      0.00000
     32      34.2710      0.00000

 k-point   300 :       0.3750   -0.3750   -0.3333
  band No.  band energies     occupation 
      1      -6.5374      2.00000
      2      -6.4130      2.00000
      3      -4.6214      2.00000
      4      -4.5990      2.00000
      5      -4.4711      2.00000
      6      -4.4328      2.00000
      7      -4.3464      2.00000
      8      -4.3118      2.00000
      9      -4.1415      2.00000
     10      -4.1303      2.00000
     11      -2.7879      2.00000
     12      -1.9653      2.00000
     13       2.9348      2.00000
     14       2.9464      2.00000
     15       2.9466      2.00000
     16       5.0676      2.00000
     17       6.5673      2.00000
     18       7.2683      2.00000
     19      14.1490      0.00000
     20      14.9009      0.00000
     21      19.3252      0.00000
     22      19.4083      0.00000
     23      19.7325      0.00000
     24      21.4142      0.00000
     25      22.7225      0.00000
     26      22.9349      0.00000
     27      26.9215      0.00000
     28      27.0234      0.00000
     29      32.4554      0.00000
     30      33.0894      0.00000
     31      36.3868      0.00000
     32      37.8174      0.00000

 k-point   301 :       0.5000   -0.3750   -0.3333
  band No.  band energies     occupation 
      1      -6.5136      2.00000
      2      -6.5136      2.00000
      3      -4.6196      2.00000
      4      -4.6196      2.00000
      5      -4.4140      2.00000
      6      -4.4140      2.00000
      7      -4.3133      2.00000
      8      -4.3133      2.00000
      9      -4.0998      2.00000
     10      -4.0998      2.00000
     11      -1.9512      2.00000
     12      -1.9512      2.00000
     13       2.3838      2.00000
     14       2.3838      2.00000
     15       4.3370      2.00000
     16       4.3370      2.00000
     17       6.2410      2.00000
     18       6.2410      2.00000
     19      14.2869      0.00000
     20      14.2869      0.00000
     21      19.1716      0.00000
     22      19.1716      0.00000
     23      21.1329      0.00000
     24      21.1329      0.00000
     25      22.7689      0.00000
     26      22.7689      0.00000
     27      27.0570      0.00000
     28      27.0570      0.00000
     29      32.8942      0.00000
     30      32.8942      0.00000
     31      38.9032      0.00000
     32      38.9032      0.00000

 k-point   302 :      -0.3750   -0.3750   -0.3333
  band No.  band energies     occupation 
      1      -6.5374      2.00000
      2      -6.4130      2.00000
      3      -4.6214      2.00000
      4      -4.5990      2.00000
      5      -4.4711      2.00000
      6      -4.4328      2.00000
      7      -4.3464      2.00000
      8      -4.3118      2.00000
      9      -4.1415      2.00000
     10      -4.1303      2.00000
     11      -2.7879      2.00000
     12      -1.9653      2.00000
     13       2.9348      2.00000
     14       2.9464      2.00000
     15       2.9466      2.00000
     16       5.0676      2.00000
     17       6.5673      2.00000
     18       7.2683      2.00000
     19      14.1490      0.00000
     20      14.9009      0.00000
     21      19.3252      0.00000
     22      19.4083      0.00000
     23      19.7325      0.00000
     24      21.4142      0.00000
     25      22.7225      0.00000
     26      22.9349      0.00000
     27      26.9215      0.00000
     28      27.0234      0.00000
     29      32.4554      0.00000
     30      33.0894      0.00000
     31      36.3868      0.00000
     32      37.8174      0.00000

 k-point   303 :      -0.2500   -0.3750   -0.3333
  band No.  band energies     occupation 
      1      -6.5243      2.00000
      2      -6.2352      2.00000
      3      -4.6364      2.00000
      4      -4.6225      2.00000
      5      -4.5192      2.00000
      6      -4.5105      2.00000
      7      -4.4356      2.00000
      8      -4.4065      2.00000
      9      -4.1801      2.00000
     10      -4.1543      2.00000
     11      -3.6093      2.00000
     12      -2.6707      2.00000
     13       1.8640      2.00000
     14       2.7670      2.00000
     15       4.7264      2.00000
     16       6.2836      2.00000
     17       7.9995      2.00000
     18       8.0134      2.00000
     19      14.9527      0.00000
     20      15.8703      0.00000
     21      18.0964      0.00000
     22      18.8122      0.00000
     23      20.3265      0.00000
     24      21.2380      0.00000
     25      21.8207      0.00000
     26      22.1788      0.00000
     27      26.9214      0.00000
     28      28.2001      0.00000
     29      31.7938      0.00000
     30      32.9816      0.00000
     31      34.0292      0.00000
     32      34.2710      0.00000

 k-point   304 :      -0.1250   -0.3750   -0.3333
  band No.  band energies     occupation 
      1      -6.5300      2.00000
      2      -6.0362      2.00000
      3      -4.7195      2.00000
      4      -4.7029      2.00000
      5      -4.5867      2.00000
      6      -4.5828      2.00000
      7      -4.5156      2.00000
      8      -4.4285      2.00000
      9      -4.1857      2.00000
     10      -4.1491      2.00000
     11      -4.0747      2.00000
     12      -3.3461      2.00000
     13       1.2296      2.00000
     14       2.3094      2.00000
     15       6.7143      2.00000
     16       8.1611      2.00000
     17       8.3294      2.00000
     18       8.9411      2.00000
     19      16.0288      0.00000
     20      16.4985      0.00000
     21      17.0321      0.00000
     22      18.0798      0.00000
     23      20.8793      0.00000
     24      20.9093      0.00000
     25      20.9386      0.00000
     26      21.4575      0.00000
     27      27.1737      0.00000
     28      29.5179      0.00000
     29      30.3104      0.00000
     30      30.5706      0.00000
     31      33.1879      0.00000
     32      33.6524      0.00000

 k-point   305 :       0.0000   -0.2500   -0.3333
  band No.  band energies     occupation 
      1      -7.4651      2.00000
      2      -6.4587      2.00000
      3      -4.6469      2.00000
      4      -4.5934      2.00000
      5      -4.5455      2.00000
      6      -4.5455      2.00000
      7      -4.4790      2.00000
      8      -4.4097      2.00000
      9      -4.2718      2.00000
     10      -4.2403      2.00000
     11      -4.1238      2.00000
     12      -3.4945      2.00000
     13       2.2347      2.00000
     14       3.8822      2.00000
     15       6.8146      2.00000
     16       7.6922      2.00000
     17       8.8485      2.00000
     18       9.1926      2.00000
     19      14.9931      0.00000
     20      15.6128      0.00000
     21      18.2316      0.00000
     22      19.8573      0.00000
     23      20.9842      0.00000
     24      20.9958      0.00000
     25      21.5557      0.00000
     26      22.2427      0.00000
     27      26.4538      0.00000
     28      26.5345      0.00000
     29      28.5093      0.00000
     30      29.9378      0.00000
     31      33.4545      0.00000
     32      35.3624      0.00000

 k-point   306 :       0.1250   -0.2500   -0.3333
  band No.  band energies     occupation 
      1      -7.3087      2.00000
      2      -6.3978      2.00000
      3      -4.6232      2.00000
      4      -4.6086      2.00000
      5      -4.5675      2.00000
      6      -4.5224      2.00000
      7      -4.5150      2.00000
      8      -4.4267      2.00000
      9      -4.3072      2.00000
     10      -4.1658      2.00000
     11      -4.1333      2.00000
     12      -3.3200      2.00000
     13       2.4440      2.00000
     14       3.9963      2.00000
     15       5.8575      2.00000
     16       7.5946      2.00000
     17       7.7419      2.00000
     18       9.4693      2.00000
     19      15.9277      0.00000
     20      16.3488      0.00000
     21      18.0459      0.00000
     22      19.3236      0.00000
     23      20.4453      0.00000
     24      20.4682      0.00000
     25      21.1523      0.00000
     26      22.1092      0.00000
     27      27.3239      0.00000
     28      27.5015      0.00000
     29      28.5324      0.00000
     30      31.3664      0.00000
     31      32.4953      0.00000
     32      34.7028      0.00000

 k-point   307 :       0.2500   -0.2500   -0.3333
  band No.  band energies     occupation 
      1      -6.9188      2.00000
      2      -6.2827      2.00000
      3      -4.6141      2.00000
      4      -4.6023      2.00000
      5      -4.5524      2.00000
      6      -4.5120      2.00000
      7      -4.4939      2.00000
      8      -4.4902      2.00000
      9      -4.2826      2.00000
     10      -4.1803      2.00000
     11      -3.9561      2.00000
     12      -2.9568      2.00000
     13       2.7495      2.00000
     14       3.9210      2.00000
     15       4.3091      2.00000
     16       6.2423      2.00000
     17       7.9556      2.00000
     18       9.0127      2.00000
     19      15.9363      0.00000
     20      17.1329      0.00000
     21      17.9898      0.00000
     22      18.5776      0.00000
     23      19.7878      0.00000
     24      20.4278      0.00000
     25      21.7723      0.00000
     26      21.8028      0.00000
     27      26.7351      0.00000
     28      29.3282      0.00000
     29      30.1423      0.00000
     30      31.7308      0.00000
     31      32.6867      0.00000
     32      34.6740      0.00000

 k-point   308 :       0.3750   -0.2500   -0.3333
  band No.  band energies     occupation 
      1      -6.5243      2.00000
      2      -6.2352      2.00000
      3      -4.6364      2.00000
      4      -4.6225      2.00000
      5      -4.5192      2.00000
      6      -4.5105      2.00000
      7      -4.4356      2.00000
      8      -4.4065      2.00000
      9      -4.1801      2.00000
     10      -4.1543      2.00000
     11      -3.6093      2.00000
     12      -2.6707      2.00000
     13       1.8640      2.00000
     14       2.7670      2.00000
     15       4.7264      2.00000
     16       6.2836      2.00000
     17       7.9995      2.00000
     18       8.0134      2.00000
     19      14.9527      0.00000
     20      15.8703      0.00000
     21      18.0964      0.00000
     22      18.8122      0.00000
     23      20.3265      0.00000
     24      21.2380      0.00000
     25      21.8207      0.00000
     26      22.1788      0.00000
     27      26.9214      0.00000
     28      28.2001      0.00000
     29      31.7938      0.00000
     30      32.9816      0.00000
     31      34.0292      0.00000
     32      34.2710      0.00000

 k-point   309 :       0.5000   -0.2500   -0.3333
  band No.  band energies     occupation 
      1      -6.3042      2.00000
      2      -6.3042      2.00000
      3      -4.6488      2.00000
      4      -4.6488      2.00000
      5      -4.4984      2.00000
      6      -4.4984      2.00000
      7      -4.3888      2.00000
      8      -4.3888      2.00000
      9      -4.1248      2.00000
     10      -4.1248      2.00000
     11      -2.9613      2.00000
     12      -2.9613      2.00000
     13       1.7003      2.00000
     14       1.7003      2.00000
     15       5.9397      2.00000
     16       5.9397      2.00000
     17       7.6613      2.00000
     18       7.6613      2.00000
     19      14.9263      0.00000
     20      14.9263      0.00000
     21      18.3619      0.00000
     22      18.3619      0.00000
     23      21.2674      0.00000
     24      21.2674      0.00000
     25      22.0631      0.00000
     26      22.0631      0.00000
     27      27.2534      0.00000
     28      27.2534      0.00000
     29      33.2110      0.00000
     30      33.2110      0.00000
     31      34.9124      0.00000
     32      34.9124      0.00000

 k-point   310 :      -0.3750   -0.2500   -0.3333
  band No.  band energies     occupation 
      1      -6.5243      2.00000
      2      -6.2352      2.00000
      3      -4.6364      2.00000
      4      -4.6225      2.00000
      5      -4.5192      2.00000
      6      -4.5105      2.00000
      7      -4.4356      2.00000
      8      -4.4065      2.00000
      9      -4.1801      2.00000
     10      -4.1543      2.00000
     11      -3.6093      2.00000
     12      -2.6707      2.00000
     13       1.8640      2.00000
     14       2.7670      2.00000
     15       4.7264      2.00000
     16       6.2836      2.00000
     17       7.9995      2.00000
     18       8.0134      2.00000
     19      14.9527      0.00000
     20      15.8703      0.00000
     21      18.0964      0.00000
     22      18.8122      0.00000
     23      20.3265      0.00000
     24      21.2380      0.00000
     25      21.8207      0.00000
     26      22.1788      0.00000
     27      26.9214      0.00000
     28      28.2001      0.00000
     29      31.7938      0.00000
     30      32.9816      0.00000
     31      34.0292      0.00000
     32      34.2710      0.00000

 k-point   311 :      -0.2500   -0.2500   -0.3333
  band No.  band energies     occupation 
      1      -6.9188      2.00000
      2      -6.2827      2.00000
      3      -4.6141      2.00000
      4      -4.6023      2.00000
      5      -4.5524      2.00000
      6      -4.5120      2.00000
      7      -4.4939      2.00000
      8      -4.4902      2.00000
      9      -4.2826      2.00000
     10      -4.1803      2.00000
     11      -3.9561      2.00000
     12      -2.9568      2.00000
     13       2.7495      2.00000
     14       3.9210      2.00000
     15       4.3091      2.00000
     16       6.2423      2.00000
     17       7.9556      2.00000
     18       9.0127      2.00000
     19      15.9363      0.00000
     20      17.1329      0.00000
     21      17.9898      0.00000
     22      18.5776      0.00000
     23      19.7878      0.00000
     24      20.4278      0.00000
     25      21.7723      0.00000
     26      21.8028      0.00000
     27      26.7351      0.00000
     28      29.3282      0.00000
     29      30.1423      0.00000
     30      31.7308      0.00000
     31      32.6867      0.00000
     32      34.6740      0.00000

 k-point   312 :      -0.1250   -0.2500   -0.3333
  band No.  band energies     occupation 
      1      -7.3087      2.00000
      2      -6.3978      2.00000
      3      -4.6232      2.00000
      4      -4.6086      2.00000
      5      -4.5675      2.00000
      6      -4.5224      2.00000
      7      -4.5150      2.00000
      8      -4.4267      2.00000
      9      -4.3072      2.00000
     10      -4.1658      2.00000
     11      -4.1333      2.00000
     12      -3.3200      2.00000
     13       2.4440      2.00000
     14       3.9963      2.00000
     15       5.8575      2.00000
     16       7.5946      2.00000
     17       7.7419      2.00000
     18       9.4693      2.00000
     19      15.9277      0.00000
     20      16.3488      0.00000
     21      18.0459      0.00000
     22      19.3236      0.00000
     23      20.4453      0.00000
     24      20.4682      0.00000
     25      21.1523      0.00000
     26      22.1092      0.00000
     27      27.3239      0.00000
     28      27.5015      0.00000
     29      28.5324      0.00000
     30      31.3664      0.00000
     31      32.4953      0.00000
     32      34.7028      0.00000

 k-point   313 :       0.0000   -0.1250   -0.3333
  band No.  band energies     occupation 
      1      -8.1017      2.00000
      2      -6.8846      2.00000
      3      -4.6443      2.00000
      4      -4.5352      2.00000
      5      -4.5149      2.00000
      6      -4.4350      2.00000
      7      -4.3427      2.00000
      8      -4.3206      2.00000
      9      -4.2908      2.00000
     10      -4.2708      2.00000
     11      -4.1388      2.00000
     12      -3.6079      2.00000
     13       3.7539      2.00000
     14       5.8018      2.00000
     15       6.5407      2.00000
     16       6.9643      2.00000
     17       8.3339      2.00000
     18       8.7533      2.00000
     19      13.7212      0.00000
     20      15.7686      0.00000
     21      18.6487      0.00000
     22      20.1772      0.00000
     23      20.6211      0.00000
     24      21.0263      0.00000
     25      23.2202      0.00000
     26      23.9579      0.00000
     27      25.1424      0.00000
     28      25.2334      0.00000
     29      29.1385      0.00000
     30      30.1996      0.00000
     31      34.4494      0.00000
     32      35.5855      0.00000

 k-point   314 :       0.1250   -0.1250   -0.3333
  band No.  band energies     occupation 
      1      -7.8928      2.00000
      2      -6.7476      2.00000
      3      -4.6185      2.00000
      4      -4.5387      2.00000
      5      -4.5255      2.00000
      6      -4.4790      2.00000
      7      -4.4309      2.00000
      8      -4.3699      2.00000
      9      -4.2802      2.00000
     10      -4.2029      2.00000
     11      -4.1892      2.00000
     12      -3.4944      2.00000
     13       3.5724      2.00000
     14       5.4513      2.00000
     15       5.9052      2.00000
     16       7.2261      2.00000
     17       7.5373      2.00000
     18       9.3499      2.00000
     19      14.5625      0.00000
     20      16.1419      0.00000
     21      19.0765      0.00000
     22      19.8359      0.00000
     23      20.2940      0.00000
     24      20.2980      0.00000
     25      22.3755      0.00000
     26      23.3639      0.00000
     27      25.9188      0.00000
     28      25.9268      0.00000
     29      29.0578      0.00000
     30      30.3454      0.00000
     31      34.5798      0.00000
     32      35.5824      0.00000

 k-point   315 :       0.2500   -0.1250   -0.3333
  band No.  band energies     occupation 
      1      -7.3087      2.00000
      2      -6.3978      2.00000
      3      -4.6232      2.00000
      4      -4.6086      2.00000
      5      -4.5675      2.00000
      6      -4.5224      2.00000
      7      -4.5150      2.00000
      8      -4.4267      2.00000
      9      -4.3072      2.00000
     10      -4.1658      2.00000
     11      -4.1333      2.00000
     12      -3.3200      2.00000
     13       2.4440      2.00000
     14       3.9963      2.00000
     15       5.8575      2.00000
     16       7.5946      2.00000
     17       7.7419      2.00000
     18       9.4693      2.00000
     19      15.9277      0.00000
     20      16.3488      0.00000
     21      18.0459      0.00000
     22      19.3236      0.00000
     23      20.4453      0.00000
     24      20.4682      0.00000
     25      21.1523      0.00000
     26      22.1092      0.00000
     27      27.3239      0.00000
     28      27.5015      0.00000
     29      28.5324      0.00000
     30      31.3664      0.00000
     31      32.4953      0.00000
     32      34.7028      0.00000

 k-point   316 :       0.3750   -0.1250   -0.3333
  band No.  band energies     occupation 
      1      -6.5300      2.00000
      2      -6.0362      2.00000
      3      -4.7195      2.00000
      4      -4.7029      2.00000
      5      -4.5867      2.00000
      6      -4.5828      2.00000
      7      -4.5156      2.00000
      8      -4.4285      2.00000
      9      -4.1857      2.00000
     10      -4.1491      2.00000
     11      -4.0747      2.00000
     12      -3.3461      2.00000
     13       1.2296      2.00000
     14       2.3094      2.00000
     15       6.7143      2.00000
     16       8.1611      2.00000
     17       8.3294      2.00000
     18       8.9411      2.00000
     19      16.0288      0.00000
     20      16.4985      0.00000
     21      17.0321      0.00000
     22      18.0798      0.00000
     23      20.8793      0.00000
     24      20.9093      0.00000
     25      20.9386      0.00000
     26      21.4575      0.00000
     27      27.1737      0.00000
     28      29.5179      0.00000
     29      30.3104      0.00000
     30      30.5706      0.00000
     31      33.1879      0.00000
     32      33.6524      0.00000

 k-point   317 :       0.5000   -0.1250   -0.3333
  band No.  band energies     occupation 
      1      -5.9998      2.00000
      2      -5.9998      2.00000
      3      -4.7438      2.00000
      4      -4.7438      2.00000
      5      -4.6112      2.00000
      6      -4.6112      2.00000
      7      -4.4436      2.00000
      8      -4.4436      2.00000
      9      -4.1348      2.00000
     10      -4.1348      2.00000
     11      -3.7669      2.00000
     12      -3.7669      2.00000
     13       1.1875      2.00000
     14       1.1875      2.00000
     15       7.8489      2.00000
     16       7.8489      2.00000
     17       8.5762      2.00000
     18       8.5762      2.00000
     19      15.9036      0.00000
     20      15.9036      0.00000
     21      17.4587      0.00000
     22      17.4587      0.00000
     23      20.6137      0.00000
     24      20.6137      0.00000
     25      21.4530      0.00000
     26      21.4530      0.00000
     27      27.9966      0.00000
     28      27.9966      0.00000
     29      31.5879      0.00000
     30      31.5879      0.00000
     31      34.6141      0.00000
     32      34.6141      0.00000

 k-point   318 :      -0.3750   -0.1250   -0.3333
  band No.  band energies     occupation 
      1      -6.5300      2.00000
      2      -6.0362      2.00000
      3      -4.7195      2.00000
      4      -4.7029      2.00000
      5      -4.5867      2.00000
      6      -4.5828      2.00000
      7      -4.5156      2.00000
      8      -4.4285      2.00000
      9      -4.1857      2.00000
     10      -4.1491      2.00000
     11      -4.0747      2.00000
     12      -3.3461      2.00000
     13       1.2296      2.00000
     14       2.3094      2.00000
     15       6.7143      2.00000
     16       8.1611      2.00000
     17       8.3294      2.00000
     18       8.9411      2.00000
     19      16.0288      0.00000
     20      16.4985      0.00000
     21      17.0321      0.00000
     22      18.0798      0.00000
     23      20.8793      0.00000
     24      20.9093      0.00000
     25      20.9386      0.00000
     26      21.4575      0.00000
     27      27.1737      0.00000
     28      29.5179      0.00000
     29      30.3104      0.00000
     30      30.5706      0.00000
     31      33.1879      0.00000
     32      33.6524      0.00000

 k-point   319 :      -0.2500   -0.1250   -0.3333
  band No.  band energies     occupation 
      1      -7.3087      2.00000
      2      -6.3978      2.00000
      3      -4.6232      2.00000
      4      -4.6086      2.00000
      5      -4.5675      2.00000
      6      -4.5224      2.00000
      7      -4.5150      2.00000
      8      -4.4267      2.00000
      9      -4.3072      2.00000
     10      -4.1658      2.00000
     11      -4.1333      2.00000
     12      -3.3200      2.00000
     13       2.4440      2.00000
     14       3.9963      2.00000
     15       5.8575      2.00000
     16       7.5946      2.00000
     17       7.7419      2.00000
     18       9.4693      2.00000
     19      15.9277      0.00000
     20      16.3488      0.00000
     21      18.0459      0.00000
     22      19.3236      0.00000
     23      20.4453      0.00000
     24      20.4682      0.00000
     25      21.1523      0.00000
     26      22.1092      0.00000
     27      27.3239      0.00000
     28      27.5015      0.00000
     29      28.5324      0.00000
     30      31.3664      0.00000
     31      32.4953      0.00000
     32      34.7028      0.00000

 k-point   320 :      -0.1250   -0.1250   -0.3333
  band No.  band energies     occupation 
      1      -7.8928      2.00000
      2      -6.7476      2.00000
      3      -4.6185      2.00000
      4      -4.5387      2.00000
      5      -4.5255      2.00000
      6      -4.4790      2.00000
      7      -4.4309      2.00000
      8      -4.3699      2.00000
      9      -4.2802      2.00000
     10      -4.2029      2.00000
     11      -4.1892      2.00000
     12      -3.4944      2.00000
     13       3.5724      2.00000
     14       5.4513      2.00000
     15       5.9052      2.00000
     16       7.2261      2.00000
     17       7.5373      2.00000
     18       9.3499      2.00000
     19      14.5625      0.00000
     20      16.1419      0.00000
     21      19.0765      0.00000
     22      19.8359      0.00000
     23      20.2940      0.00000
     24      20.2980      0.00000
     25      22.3755      0.00000
     26      23.3639      0.00000
     27      25.9188      0.00000
     28      25.9268      0.00000
     29      29.0578      0.00000
     30      30.3454      0.00000
     31      34.5798      0.00000
     32      35.5824      0.00000

 k-point   321 :       0.0000    0.0000   -0.1667
  band No.  band energies     occupation 
      1      -8.8887      2.00000
      2      -6.8920      2.00000
      3      -4.7111      2.00000
      4      -4.4788      2.00000
      5      -4.4417      2.00000
      6      -4.4417      2.00000
      7      -4.3774      2.00000
      8      -4.3133      2.00000
      9      -4.1811      2.00000
     10      -4.1031      2.00000
     11      -4.1031      2.00000
     12      -2.2931      2.00000
     13       2.6303      2.00000
     14       6.1764      2.00000
     15       6.1764      2.00000
     16       8.2253      2.00000
     17       8.6569      2.00000
     18       8.6569      2.00000
     19      11.4306      0.00000
     20      14.0872      0.00000
     21      17.6958      0.00000
     22      22.2510      0.00000
     23      22.9297      0.00000
     24      24.3642      0.00000
     25      24.3642      0.00000
     26      24.5394      0.00000
     27      25.3880      0.00000
     28      25.3880      0.00000
     29      28.5906      0.00000
     30      28.6198      0.00000
     31      28.6198      0.00000
     32      32.6306      0.00000

 k-point   322 :       0.1250   -0.0000   -0.1667
  band No.  band energies     occupation 
      1      -8.6614      2.00000
      2      -6.7748      2.00000
      3      -4.6861      2.00000
      4      -4.4883      2.00000
      5      -4.4504      2.00000
      6      -4.4486      2.00000
      7      -4.3612      2.00000
      8      -4.3353      2.00000
      9      -4.2586      2.00000
     10      -4.1748      2.00000
     11      -4.0964      2.00000
     12      -2.2607      2.00000
     13       2.6048      2.00000
     14       5.3177      2.00000
     15       6.4658      2.00000
     16       6.9848      2.00000
     17       8.8308      2.00000
     18       8.9782      2.00000
     19      12.3643      0.00000
     20      14.6068      0.00000
     21      18.2205      0.00000
     22      21.5336      0.00000
     23      21.8854      0.00000
     24      23.7862      0.00000
     25      23.8368      0.00000
     26      24.6758      0.00000
     27      25.5412      0.00000
     28      26.3532      0.00000
     29      26.7270      0.00000
     30      27.4598      0.00000
     31      31.3610      0.00000
     32      35.0866      0.00000

 k-point   323 :       0.2500   -0.0000   -0.1667
  band No.  band energies     occupation 
      1      -8.0092      2.00000
      2      -6.4723      2.00000
      3      -4.6416      2.00000
      4      -4.5299      2.00000
      5      -4.5136      2.00000
      6      -4.5001      2.00000
      7      -4.4121      2.00000
      8      -4.3308      2.00000
      9      -4.3184      2.00000
     10      -4.2757      2.00000
     11      -4.1144      2.00000
     12      -2.3473      2.00000
     13       2.0706      2.00000
     14       4.7512      2.00000
     15       5.1355      2.00000
     16       7.2492      2.00000
     17       8.6727      2.00000
     18       9.2288      2.00000
     19      13.8580      0.00000
     20      15.4943      0.00000
     21      18.9437      0.00000
     22      20.2224      0.00000
     23      21.4175      0.00000
     24      22.0683      0.00000
     25      22.1644      0.00000
     26      23.0536      0.00000
     27      26.3542      0.00000
     28      26.6696      0.00000
     29      27.2590      0.00000
     30      28.9103      0.00000
     31      34.4422      0.00000
     32      35.0032      0.00000

 k-point   324 :       0.3750   -0.0000   -0.1667
  band No.  band energies     occupation 
      1      -7.0620      2.00000
      2      -6.1563      2.00000
      3      -4.6619      2.00000
      4      -4.6370      2.00000
      5      -4.5993      2.00000
      6      -4.5545      2.00000
      7      -4.5225      2.00000
      8      -4.4148      2.00000
      9      -4.2801      2.00000
     10      -4.1578      2.00000
     11      -4.1165      2.00000
     12      -2.9493      2.00000
     13       1.5836      2.00000
     14       3.3945      2.00000
     15       5.4246      2.00000
     16       7.7814      2.00000
     17       8.2839      2.00000
     18       9.4854      2.00000
     19      15.2882      0.00000
     20      16.1827      0.00000
     21      18.4114      0.00000
     22      19.2364      0.00000
     23      20.6191      0.00000
     24      20.6976      0.00000
     25      21.3191      0.00000
     26      21.3938      0.00000
     27      28.0233      0.00000
     28      28.1915      0.00000
     29      28.7356      0.00000
     30      31.6983      0.00000
     31      31.8899      0.00000
     32      32.9682      0.00000

 k-point   325 :       0.5000   -0.0000   -0.1667
  band No.  band energies     occupation 
      1      -6.2456      2.00000
      2      -6.2456      2.00000
      3      -4.7165      2.00000
      4      -4.7165      2.00000
      5      -4.6233      2.00000
      6      -4.6233      2.00000
      7      -4.4780      2.00000
      8      -4.4780      2.00000
      9      -4.2168      2.00000
     10      -4.2168      2.00000
     11      -3.7527      2.00000
     12      -3.7527      2.00000
     13       2.1063      2.00000
     14       2.1063      2.00000
     15       6.5760      2.00000
     16       6.5760      2.00000
     17       9.1710      2.00000
     18       9.1710      2.00000
     19      16.4705      0.00000
     20      16.4705      0.00000
     21      17.9159      0.00000
     22      17.9159      0.00000
     23      20.4259      0.00000
     24      20.4259      0.00000
     25      20.8793      0.00000
     26      20.8793      0.00000
     27      29.7735      0.00000
     28      29.7735      0.00000
     29      29.9191      0.00000
     30      29.9191      0.00000
     31      32.3805      0.00000
     32      32.3805      0.00000

 k-point   326 :      -0.3750    0.0000   -0.1667
  band No.  band energies     occupation 
      1      -7.0620      2.00000
      2      -6.1563      2.00000
      3      -4.6619      2.00000
      4      -4.6370      2.00000
      5      -4.5993      2.00000
      6      -4.5545      2.00000
      7      -4.5225      2.00000
      8      -4.4148      2.00000
      9      -4.2801      2.00000
     10      -4.1578      2.00000
     11      -4.1165      2.00000
     12      -2.9493      2.00000
     13       1.5836      2.00000
     14       3.3945      2.00000
     15       5.4246      2.00000
     16       7.7814      2.00000
     17       8.2839      2.00000
     18       9.4854      2.00000
     19      15.2882      0.00000
     20      16.1827      0.00000
     21      18.4114      0.00000
     22      19.2364      0.00000
     23      20.6191      0.00000
     24      20.6976      0.00000
     25      21.3191      0.00000
     26      21.3938      0.00000
     27      28.0233      0.00000
     28      28.1915      0.00000
     29      28.7356      0.00000
     30      31.6983      0.00000
     31      31.8899      0.00000
     32      32.9682      0.00000

 k-point   327 :      -0.2500    0.0000   -0.1667
  band No.  band energies     occupation 
      1      -8.0092      2.00000
      2      -6.4723      2.00000
      3      -4.6416      2.00000
      4      -4.5299      2.00000
      5      -4.5136      2.00000
      6      -4.5001      2.00000
      7      -4.4121      2.00000
      8      -4.3308      2.00000
      9      -4.3184      2.00000
     10      -4.2757      2.00000
     11      -4.1144      2.00000
     12      -2.3473      2.00000
     13       2.0706      2.00000
     14       4.7512      2.00000
     15       5.1355      2.00000
     16       7.2492      2.00000
     17       8.6727      2.00000
     18       9.2288      2.00000
     19      13.8580      0.00000
     20      15.4943      0.00000
     21      18.9437      0.00000
     22      20.2224      0.00000
     23      21.4175      0.00000
     24      22.0683      0.00000
     25      22.1644      0.00000
     26      23.0536      0.00000
     27      26.3542      0.00000
     28      26.6696      0.00000
     29      27.2590      0.00000
     30      28.9103      0.00000
     31      34.4422      0.00000
     32      35.0032      0.00000

 k-point   328 :      -0.1250    0.0000   -0.1667
  band No.  band energies     occupation 
      1      -8.6614      2.00000
      2      -6.7748      2.00000
      3      -4.6861      2.00000
      4      -4.4883      2.00000
      5      -4.4504      2.00000
      6      -4.4486      2.00000
      7      -4.3612      2.00000
      8      -4.3353      2.00000
      9      -4.2586      2.00000
     10      -4.1748      2.00000
     11      -4.0964      2.00000
     12      -2.2607      2.00000
     13       2.6048      2.00000
     14       5.3177      2.00000
     15       6.4658      2.00000
     16       6.9848      2.00000
     17       8.8308      2.00000
     18       8.9782      2.00000
     19      12.3643      0.00000
     20      14.6068      0.00000
     21      18.2205      0.00000
     22      21.5336      0.00000
     23      21.8854      0.00000
     24      23.7862      0.00000
     25      23.8368      0.00000
     26      24.6758      0.00000
     27      25.5412      0.00000
     28      26.3532      0.00000
     29      26.7270      0.00000
     30      27.4598      0.00000
     31      31.3610      0.00000
     32      35.0866      0.00000

 k-point   329 :      -0.0000    0.1250   -0.1667
  band No.  band energies     occupation 
      1      -8.6614      2.00000
      2      -6.7748      2.00000
      3      -4.6861      2.00000
      4      -4.4883      2.00000
      5      -4.4504      2.00000
      6      -4.4486      2.00000
      7      -4.3612      2.00000
      8      -4.3353      2.00000
      9      -4.2586      2.00000
     10      -4.1748      2.00000
     11      -4.0964      2.00000
     12      -2.2607      2.00000
     13       2.6048      2.00000
     14       5.3177      2.00000
     15       6.4658      2.00000
     16       6.9848      2.00000
     17       8.8308      2.00000
     18       8.9782      2.00000
     19      12.3643      0.00000
     20      14.6068      0.00000
     21      18.2205      0.00000
     22      21.5336      0.00000
     23      21.8854      0.00000
     24      23.7862      0.00000
     25      23.8368      0.00000
     26      24.6758      0.00000
     27      25.5412      0.00000
     28      26.3532      0.00000
     29      26.7270      0.00000
     30      27.4598      0.00000
     31      31.3610      0.00000
     32      35.0866      0.00000

 k-point   330 :       0.1250    0.1250   -0.1667
  band No.  band energies     occupation 
      1      -8.4459      2.00000
      2      -6.6783      2.00000
      3      -4.6551      2.00000
      4      -4.5025      2.00000
      5      -4.4711      2.00000
      6      -4.4243      2.00000
      7      -4.4104      2.00000
      8      -4.3401      2.00000
      9      -4.2866      2.00000
     10      -4.2168      2.00000
     11      -4.1030      2.00000
     12      -2.2080      2.00000
     13       2.6691      2.00000
     14       5.3423      2.00000
     15       5.7445      2.00000
     16       6.6614      2.00000
     17       8.1823      2.00000
     18       9.1343      2.00000
     19      13.3849      0.00000
     20      15.1970      0.00000
     21      18.6966      0.00000
     22      21.1536      0.00000
     23      21.3032      0.00000
     24      22.0218      0.00000
     25      23.6288      0.00000
     26      23.6763      0.00000
     27      25.2677      0.00000
     28      26.4021      0.00000
     29      28.2322      0.00000
     30      28.9964      0.00000
     31      32.8742      0.00000
     32      34.4438      0.00000

 k-point   331 :       0.2500    0.1250   -0.1667
  band No.  band energies     occupation 
      1      -7.8388      2.00000
      2      -6.4431      2.00000
      3      -4.6005      2.00000
      4      -4.5632      2.00000
      5      -4.5287      2.00000
      6      -4.4624      2.00000
      7      -4.4456      2.00000
      8      -4.3544      2.00000
      9      -4.3143      2.00000
     10      -4.2421      2.00000
     11      -4.1099      2.00000
     12      -2.2115      2.00000
     13       2.3140      2.00000
     14       4.6739      2.00000
     15       5.2111      2.00000
     16       6.3333      2.00000
     17       8.1687      2.00000
     18       8.7605      2.00000
     19      14.9405      0.00000
     20      16.0575      0.00000
     21      19.0785      0.00000
     22      19.5677      0.00000
     23      20.5961      0.00000
     24      20.7443      0.00000
     25      22.4836      0.00000
     26      22.9157      0.00000
     27      25.3338      0.00000
     28      27.5579      0.00000
     29      29.5515      0.00000
     30      30.8050      0.00000
     31      32.0719      0.00000
     32      35.7260      0.00000

 k-point   332 :       0.3750    0.1250   -0.1667
  band No.  band energies     occupation 
      1      -7.0062      2.00000
      2      -6.2404      2.00000
      3      -4.6394      2.00000
      4      -4.6307      2.00000
      5      -4.5228      2.00000
      6      -4.4939      2.00000
      7      -4.4886      2.00000
      8      -4.4444      2.00000
      9      -4.2111      2.00000
     10      -4.1368      2.00000
     11      -4.1001      2.00000
     12      -2.6963      2.00000
     13       1.7572      2.00000
     14       3.5241      2.00000
     15       5.3315      2.00000
     16       7.3116      2.00000
     17       7.6803      2.00000
     18       8.5422      2.00000
     19      16.0486      0.00000
     20      16.2647      0.00000
     21      17.8912      0.00000
     22      18.1206      0.00000
     23      20.4160      0.00000
     24      21.1306      0.00000
     25      21.7447      0.00000
     26      22.1394      0.00000
     27      26.0973      0.00000
     28      29.5024      0.00000
     29      29.8845      0.00000
     30      30.9896      0.00000
     31      32.9440      0.00000
     32      35.6606      0.00000

 k-point   333 :       0.5000    0.1250   -0.1667
  band No.  band energies     occupation 
      1      -6.3607      2.00000
      2      -6.3607      2.00000
      3      -4.6574      2.00000
      4      -4.6574      2.00000
      5      -4.5299      2.00000
      6      -4.5299      2.00000
      7      -4.4592      2.00000
      8      -4.4592      2.00000
      9      -4.1710      2.00000
     10      -4.1710      2.00000
     11      -3.5733      2.00000
     12      -3.5733      2.00000
     13       2.2373      2.00000
     14       2.2373      2.00000
     15       6.4928      2.00000
     16       6.4928      2.00000
     17       8.2005      2.00000
     18       8.2005      2.00000
     19      16.2687      0.00000
     20      16.2687      0.00000
     21      17.5673      0.00000
     22      17.5673      0.00000
     23      20.7119      0.00000
     24      20.7119      0.00000
     25      21.6809      0.00000
     26      21.6809      0.00000
     27      27.5977      0.00000
     28      27.5977      0.00000
     29      32.1998      0.00000
     30      32.1998      0.00000
     31      33.9489      0.00000
     32      33.9489      0.00000

 k-point   334 :      -0.3750    0.1250   -0.1667
  band No.  band energies     occupation 
      1      -7.0062      2.00000
      2      -6.2404      2.00000
      3      -4.6394      2.00000
      4      -4.6307      2.00000
      5      -4.5228      2.00000
      6      -4.4939      2.00000
      7      -4.4886      2.00000
      8      -4.4444      2.00000
      9      -4.2111      2.00000
     10      -4.1368      2.00000
     11      -4.1001      2.00000
     12      -2.6963      2.00000
     13       1.7572      2.00000
     14       3.5241      2.00000
     15       5.3315      2.00000
     16       7.3116      2.00000
     17       7.6803      2.00000
     18       8.5422      2.00000
     19      16.0486      0.00000
     20      16.2647      0.00000
     21      17.8912      0.00000
     22      18.1206      0.00000
     23      20.4160      0.00000
     24      21.1306      0.00000
     25      21.7447      0.00000
     26      22.1394      0.00000
     27      26.0973      0.00000
     28      29.5024      0.00000
     29      29.8845      0.00000
     30      30.9896      0.00000
     31      32.9440      0.00000
     32      35.6606      0.00000

 k-point   335 :      -0.2500    0.1250   -0.1667
  band No.  band energies     occupation 
      1      -7.8388      2.00000
      2      -6.4431      2.00000
      3      -4.6005      2.00000
      4      -4.5632      2.00000
      5      -4.5287      2.00000
      6      -4.4624      2.00000
      7      -4.4456      2.00000
      8      -4.3544      2.00000
      9      -4.3143      2.00000
     10      -4.2421      2.00000
     11      -4.1099      2.00000
     12      -2.2115      2.00000
     13       2.3140      2.00000
     14       4.6739      2.00000
     15       5.2111      2.00000
     16       6.3333      2.00000
     17       8.1687      2.00000
     18       8.7605      2.00000
     19      14.9405      0.00000
     20      16.0575      0.00000
     21      19.0785      0.00000
     22      19.5677      0.00000
     23      20.5961      0.00000
     24      20.7443      0.00000
     25      22.4836      0.00000
     26      22.9157      0.00000
     27      25.3338      0.00000
     28      27.5579      0.00000
     29      29.5515      0.00000
     30      30.8050      0.00000
     31      32.0719      0.00000
     32      35.7260      0.00000

 k-point   336 :      -0.1250    0.1250   -0.1667
  band No.  band energies     occupation 
      1      -8.4459      2.00000
      2      -6.6783      2.00000
      3      -4.6551      2.00000
      4      -4.5025      2.00000
      5      -4.4711      2.00000
      6      -4.4243      2.00000
      7      -4.4104      2.00000
      8      -4.3401      2.00000
      9      -4.2866      2.00000
     10      -4.2168      2.00000
     11      -4.1030      2.00000
     12      -2.2080      2.00000
     13       2.6691      2.00000
     14       5.3423      2.00000
     15       5.7445      2.00000
     16       6.6614      2.00000
     17       8.1823      2.00000
     18       9.1343      2.00000
     19      13.3849      0.00000
     20      15.1970      0.00000
     21      18.6966      0.00000
     22      21.1536      0.00000
     23      21.3032      0.00000
     24      22.0218      0.00000
     25      23.6288      0.00000
     26      23.6763      0.00000
     27      25.2677      0.00000
     28      26.4021      0.00000
     29      28.2322      0.00000
     30      28.9964      0.00000
     31      32.8742      0.00000
     32      34.4438      0.00000

 k-point   337 :      -0.0000    0.2500   -0.1667
  band No.  band energies     occupation 
      1      -8.0092      2.00000
      2      -6.4723      2.00000
      3      -4.6416      2.00000
      4      -4.5299      2.00000
      5      -4.5136      2.00000
      6      -4.5001      2.00000
      7      -4.4121      2.00000
      8      -4.3308      2.00000
      9      -4.3184      2.00000
     10      -4.2757      2.00000
     11      -4.1144      2.00000
     12      -2.3473      2.00000
     13       2.0706      2.00000
     14       4.7512      2.00000
     15       5.1355      2.00000
     16       7.2492      2.00000
     17       8.6727      2.00000
     18       9.2288      2.00000
     19      13.8580      0.00000
     20      15.4943      0.00000
     21      18.9437      0.00000
     22      20.2224      0.00000
     23      21.4175      0.00000
     24      22.0683      0.00000
     25      22.1644      0.00000
     26      23.0536      0.00000
     27      26.3542      0.00000
     28      26.6696      0.00000
     29      27.2590      0.00000
     30      28.9103      0.00000
     31      34.4422      0.00000
     32      35.0032      0.00000

 k-point   338 :       0.1250    0.2500   -0.1667
  band No.  band energies     occupation 
      1      -7.8388      2.00000
      2      -6.4431      2.00000
      3      -4.6005      2.00000
      4      -4.5632      2.00000
      5      -4.5287      2.00000
      6      -4.4624      2.00000
      7      -4.4456      2.00000
      8      -4.3544      2.00000
      9      -4.3143      2.00000
     10      -4.2421      2.00000
     11      -4.1099      2.00000
     12      -2.2115      2.00000
     13       2.3140      2.00000
     14       4.6739      2.00000
     15       5.2111      2.00000
     16       6.3333      2.00000
     17       8.1687      2.00000
     18       8.7605      2.00000
     19      14.9405      0.00000
     20      16.0575      0.00000
     21      19.0785      0.00000
     22      19.5677      0.00000
     23      20.5961      0.00000
     24      20.7443      0.00000
     25      22.4836      0.00000
     26      22.9157      0.00000
     27      25.3338      0.00000
     28      27.5579      0.00000
     29      29.5515      0.00000
     30      30.8050      0.00000
     31      32.0719      0.00000
     32      35.7260      0.00000

 k-point   339 :       0.2500    0.2500   -0.1667
  band No.  band energies     occupation 
      1      -7.3971      2.00000
      2      -6.4001      2.00000
      3      -4.5835      2.00000
      4      -4.5467      2.00000
      5      -4.4957      2.00000
      6      -4.4832      2.00000
      7      -4.4337      2.00000
      8      -4.3543      2.00000
      9      -4.2929      2.00000
     10      -4.1416      2.00000
     11      -4.1028      2.00000
     12      -1.9560      2.00000
     13       2.8712      2.00000
     14       3.6716      2.00000
     15       4.9968      2.00000
     16       5.9979      2.00000
     17       7.0737      2.00000
     18       8.1583      2.00000
     19      15.7301      0.00000
     20      15.7478      0.00000
     21      19.2016      0.00000
     22      19.2356      0.00000
     23      19.5047      0.00000
     24      20.5732      0.00000
     25      21.8763      0.00000
     26      23.4362      0.00000
     27      24.8395      0.00000
     28      29.5240      0.00000
     29      29.5493      0.00000
     30      33.0181      0.00000
     31      33.2128      0.00000
     32      36.2638      0.00000

 k-point   340 :       0.3750    0.2500   -0.1667
  band No.  band energies     occupation 
      1      -6.9001      2.00000
      2      -6.4252      2.00000
      3      -4.6274      2.00000
      4      -4.6067      2.00000
      5      -4.4502      2.00000
      6      -4.3788      2.00000
      7      -4.3621      2.00000
      8      -4.3478      2.00000
      9      -4.1507      2.00000
     10      -4.1096      2.00000
     11      -3.8097      2.00000
     12      -2.0645      2.00000
     13       2.2323      2.00000
     14       3.7573      2.00000
     15       4.3092      2.00000
     16       6.5563      2.00000
     17       6.8574      2.00000
     18       7.2666      2.00000
     19      14.4240      0.00000
     20      14.7679      0.00000
     21      18.7590      0.00000
     22      19.1145      0.00000
     23      20.2629      0.00000
     24      21.0930      0.00000
     25      22.3845      0.00000
     26      23.5107      0.00000
     27      25.3388      0.00000
     28      27.5036      0.00000
     29      32.0019      0.00000
     30      34.8226      0.00000
     31      35.0784      0.00000
     32      37.8616      0.00000

 k-point   341 :       0.5000    0.2500   -0.1667
  band No.  band energies     occupation 
      1      -6.5719      2.00000
      2      -6.5719      2.00000
      3      -4.6407      2.00000
      4      -4.6407      2.00000
      5      -4.4027      2.00000
      6      -4.4027      2.00000
      7      -4.3149      2.00000
      8      -4.3149      2.00000
      9      -4.1160      2.00000
     10      -4.1160      2.00000
     11      -2.9163      2.00000
     12      -2.9163      2.00000
     13       2.5327      2.00000
     14       2.5327      2.00000
     15       5.6690      2.00000
     16       5.6690      2.00000
     17       7.0575      2.00000
     18       7.0575      2.00000
     19      14.0065      0.00000
     20      14.0065      0.00000
     21      18.7730      0.00000
     22      18.7730      0.00000
     23      20.9569      0.00000
     24      20.9569      0.00000
     25      23.1955      0.00000
     26      23.1955      0.00000
     27      26.1547      0.00000
     28      26.1547      0.00000
     29      34.9871      0.00000
     30      34.9871      0.00000
     31      36.5227      0.00000
     32      36.5227      0.00000

 k-point   342 :      -0.3750    0.2500   -0.1667
  band No.  band energies     occupation 
      1      -6.9001      2.00000
      2      -6.4252      2.00000
      3      -4.6274      2.00000
      4      -4.6067      2.00000
      5      -4.4502      2.00000
      6      -4.3788      2.00000
      7      -4.3621      2.00000
      8      -4.3478      2.00000
      9      -4.1507      2.00000
     10      -4.1096      2.00000
     11      -3.8097      2.00000
     12      -2.0645      2.00000
     13       2.2323      2.00000
     14       3.7573      2.00000
     15       4.3092      2.00000
     16       6.5563      2.00000
     17       6.8574      2.00000
     18       7.2666      2.00000
     19      14.4240      0.00000
     20      14.7679      0.00000
     21      18.7590      0.00000
     22      19.1145      0.00000
     23      20.2629      0.00000
     24      21.0930      0.00000
     25      22.3845      0.00000
     26      23.5107      0.00000
     27      25.3388      0.00000
     28      27.5036      0.00000
     29      32.0019      0.00000
     30      34.8226      0.00000
     31      35.0784      0.00000
     32      37.8616      0.00000

 k-point   343 :      -0.2500    0.2500   -0.1667
  band No.  band energies     occupation 
      1      -7.3971      2.00000
      2      -6.4001      2.00000
      3      -4.5835      2.00000
      4      -4.5467      2.00000
      5      -4.4957      2.00000
      6      -4.4832      2.00000
      7      -4.4337      2.00000
      8      -4.3543      2.00000
      9      -4.2929      2.00000
     10      -4.1416      2.00000
     11      -4.1028      2.00000
     12      -1.9560      2.00000
     13       2.8712      2.00000
     14       3.6716      2.00000
     15       4.9968      2.00000
     16       5.9979      2.00000
     17       7.0737      2.00000
     18       8.1583      2.00000
     19      15.7301      0.00000
     20      15.7478      0.00000
     21      19.2016      0.00000
     22      19.2356      0.00000
     23      19.5047      0.00000
     24      20.5732      0.00000
     25      21.8763      0.00000
     26      23.4362      0.00000
     27      24.8395      0.00000
     28      29.5240      0.00000
     29      29.5493      0.00000
     30      33.0181      0.00000
     31      33.2128      0.00000
     32      36.2638      0.00000

 k-point   344 :      -0.1250    0.2500   -0.1667
  band No.  band energies     occupation 
      1      -7.8388      2.00000
      2      -6.4431      2.00000
      3      -4.6005      2.00000
      4      -4.5632      2.00000
      5      -4.5287      2.00000
      6      -4.4624      2.00000
      7      -4.4456      2.00000
      8      -4.3544      2.00000
      9      -4.3143      2.00000
     10      -4.2421      2.00000
     11      -4.1099      2.00000
     12      -2.2115      2.00000
     13       2.3140      2.00000
     14       4.6739      2.00000
     15       5.2111      2.00000
     16       6.3333      2.00000
     17       8.1687      2.00000
     18       8.7605      2.00000
     19      14.9405      0.00000
     20      16.0575      0.00000
     21      19.0785      0.00000
     22      19.5677      0.00000
     23      20.5961      0.00000
     24      20.7443      0.00000
     25      22.4836      0.00000
     26      22.9157      0.00000
     27      25.3338      0.00000
     28      27.5579      0.00000
     29      29.5515      0.00000
     30      30.8050      0.00000
     31      32.0719      0.00000
     32      35.7260      0.00000

 k-point   345 :      -0.0000    0.3750   -0.1667
  band No.  band energies     occupation 
      1      -7.0620      2.00000
      2      -6.1563      2.00000
      3      -4.6619      2.00000
      4      -4.6370      2.00000
      5      -4.5993      2.00000
      6      -4.5545      2.00000
      7      -4.5225      2.00000
      8      -4.4148      2.00000
      9      -4.2801      2.00000
     10      -4.1578      2.00000
     11      -4.1165      2.00000
     12      -2.9493      2.00000
     13       1.5836      2.00000
     14       3.3945      2.00000
     15       5.4246      2.00000
     16       7.7814      2.00000
     17       8.2839      2.00000
     18       9.4854      2.00000
     19      15.2882      0.00000
     20      16.1827      0.00000
     21      18.4114      0.00000
     22      19.2364      0.00000
     23      20.6191      0.00000
     24      20.6976      0.00000
     25      21.3191      0.00000
     26      21.3938      0.00000
     27      28.0233      0.00000
     28      28.1915      0.00000
     29      28.7356      0.00000
     30      31.6983      0.00000
     31      31.8899      0.00000
     32      32.9682      0.00000

 k-point   346 :       0.1250    0.3750   -0.1667
  band No.  band energies     occupation 
      1      -7.0062      2.00000
      2      -6.2404      2.00000
      3      -4.6394      2.00000
      4      -4.6307      2.00000
      5      -4.5228      2.00000
      6      -4.4939      2.00000
      7      -4.4886      2.00000
      8      -4.4444      2.00000
      9      -4.2111      2.00000
     10      -4.1368      2.00000
     11      -4.1001      2.00000
     12      -2.6963      2.00000
     13       1.7572      2.00000
     14       3.5241      2.00000
     15       5.3315      2.00000
     16       7.3116      2.00000
     17       7.6803      2.00000
     18       8.5422      2.00000
     19      16.0486      0.00000
     20      16.2647      0.00000
     21      17.8912      0.00000
     22      18.1206      0.00000
     23      20.4160      0.00000
     24      21.1306      0.00000
     25      21.7447      0.00000
     26      22.1394      0.00000
     27      26.0973      0.00000
     28      29.5024      0.00000
     29      29.8845      0.00000
     30      30.9896      0.00000
     31      32.9440      0.00000
     32      35.6606      0.00000

 k-point   347 :       0.2500    0.3750   -0.1667
  band No.  band energies     occupation 
      1      -6.9001      2.00000
      2      -6.4252      2.00000
      3      -4.6274      2.00000
      4      -4.6067      2.00000
      5      -4.4502      2.00000
      6      -4.3788      2.00000
      7      -4.3621      2.00000
      8      -4.3478      2.00000
      9      -4.1507      2.00000
     10      -4.1096      2.00000
     11      -3.8097      2.00000
     12      -2.0645      2.00000
     13       2.2323      2.00000
     14       3.7573      2.00000
     15       4.3092      2.00000
     16       6.5563      2.00000
     17       6.8574      2.00000
     18       7.2666      2.00000
     19      14.4240      0.00000
     20      14.7679      0.00000
     21      18.7590      0.00000
     22      19.1145      0.00000
     23      20.2629      0.00000
     24      21.0930      0.00000
     25      22.3845      0.00000
     26      23.5107      0.00000
     27      25.3388      0.00000
     28      27.5036      0.00000
     29      32.0019      0.00000
     30      34.8226      0.00000
     31      35.0784      0.00000
     32      37.8616      0.00000

 k-point   348 :       0.3750    0.3750   -0.1667
  band No.  band energies     occupation 
      1      -6.8161      2.00000
      2      -6.6054      2.00000
      3      -4.6674      2.00000
      4      -4.6576      2.00000
      5      -4.3328      2.00000
      6      -4.2951      2.00000
      7      -4.2429      2.00000
      8      -4.1762      2.00000
      9      -4.1421      2.00000
     10      -4.0983      2.00000
     11      -2.9886      2.00000
     12      -1.4915      2.00000
     13       2.2317      2.00000
     14       3.3346      2.00000
     15       3.7565      2.00000
     16       6.0133      2.00000
     17       6.3759      2.00000
     18       6.6137      2.00000
     19      12.9469      0.00000
     20      13.1466      0.00000
     21      18.3922      0.00000
     22      18.8732      0.00000
     23      21.2222      0.00000
     24      21.9757      0.00000
     25      23.7046      0.00000
     26      24.3184      0.00000
     27      25.5595      0.00000
     28      26.0735      0.00000
     29      34.4232      0.00000
     30      36.0996      0.00000
     31      38.2308      0.00000
     32      39.6361      0.00000

 k-point   349 :       0.5000    0.3750   -0.1667
  band No.  band energies     occupation 
      1      -6.7328      2.00000
      2      -6.7328      2.00000
      3      -4.6834      2.00000
      4      -4.6834      2.00000
      5      -4.2726      2.00000
      6      -4.2726      2.00000
      7      -4.1813      2.00000
      8      -4.1813      2.00000
      9      -4.0920      2.00000
     10      -4.0920      2.00000
     11      -1.9045      2.00000
     12      -1.9045      2.00000
     13       2.3077      2.00000
     14       2.3077      2.00000
     15       4.8924      2.00000
     16       4.8924      2.00000
     17       6.4521      2.00000
     18       6.4521      2.00000
     19      12.4680      0.00000
     20      12.4680      0.00000
     21      18.3367      0.00000
     22      18.3367      0.00000
     23      22.0009      0.00000
     24      22.0009      0.00000
     25      24.5153      0.00000
     26      24.5153      0.00000
     27      25.6829      0.00000
     28      25.6829      0.00000
     29      36.4308      0.00000
     30      36.4308      0.00000
     31      39.0979      0.00000
     32      39.0979      0.00000

 k-point   350 :      -0.3750    0.3750   -0.1667
  band No.  band energies     occupation 
      1      -6.8161      2.00000
      2      -6.6054      2.00000
      3      -4.6674      2.00000
      4      -4.6576      2.00000
      5      -4.3328      2.00000
      6      -4.2951      2.00000
      7      -4.2429      2.00000
      8      -4.1762      2.00000
      9      -4.1421      2.00000
     10      -4.0983      2.00000
     11      -2.9886      2.00000
     12      -1.4915      2.00000
     13       2.2317      2.00000
     14       3.3346      2.00000
     15       3.7565      2.00000
     16       6.0133      2.00000
     17       6.3759      2.00000
     18       6.6137      2.00000
     19      12.9469      0.00000
     20      13.1466      0.00000
     21      18.3922      0.00000
     22      18.8732      0.00000
     23      21.2222      0.00000
     24      21.9757      0.00000
     25      23.7046      0.00000
     26      24.3184      0.00000
     27      25.5595      0.00000
     28      26.0735      0.00000
     29      34.4232      0.00000
     30      36.0996      0.00000
     31      38.2308      0.00000
     32      39.6374      0.00000

 k-point   351 :      -0.2500    0.3750   -0.1667
  band No.  band energies     occupation 
      1      -6.9001      2.00000
      2      -6.4252      2.00000
      3      -4.6274      2.00000
      4      -4.6067      2.00000
      5      -4.4502      2.00000
      6      -4.3788      2.00000
      7      -4.3621      2.00000
      8      -4.3478      2.00000
      9      -4.1507      2.00000
     10      -4.1096      2.00000
     11      -3.8097      2.00000
     12      -2.0645      2.00000
     13       2.2323      2.00000
     14       3.7573      2.00000
     15       4.3092      2.00000
     16       6.5563      2.00000
     17       6.8574      2.00000
     18       7.2666      2.00000
     19      14.4240      0.00000
     20      14.7679      0.00000
     21      18.7590      0.00000
     22      19.1145      0.00000
     23      20.2629      0.00000
     24      21.0930      0.00000
     25      22.3845      0.00000
     26      23.5107      0.00000
     27      25.3388      0.00000
     28      27.5036      0.00000
     29      32.0019      0.00000
     30      34.8226      0.00000
     31      35.0784      0.00000
     32      37.8616      0.00000

 k-point   352 :      -0.1250    0.3750   -0.1667
  band No.  band energies     occupation 
      1      -7.0062      2.00000
      2      -6.2404      2.00000
      3      -4.6394      2.00000
      4      -4.6307      2.00000
      5      -4.5228      2.00000
      6      -4.4939      2.00000
      7      -4.4886      2.00000
      8      -4.4444      2.00000
      9      -4.2111      2.00000
     10      -4.1368      2.00000
     11      -4.1001      2.00000
     12      -2.6963      2.00000
     13       1.7572      2.00000
     14       3.5241      2.00000
     15       5.3315      2.00000
     16       7.3116      2.00000
     17       7.6803      2.00000
     18       8.5422      2.00000
     19      16.0486      0.00000
     20      16.2647      0.00000
     21      17.8912      0.00000
     22      18.1206      0.00000
     23      20.4160      0.00000
     24      21.1306      0.00000
     25      21.7447      0.00000
     26      22.1394      0.00000
     27      26.0973      0.00000
     28      29.5024      0.00000
     29      29.8845      0.00000
     30      30.9896      0.00000
     31      32.9440      0.00000
     32      35.6606      0.00000

 k-point   353 :      -0.0000    0.5000   -0.1667
  band No.  band energies     occupation 
      1      -6.2456      2.00000
      2      -6.2456      2.00000
      3      -4.7165      2.00000
      4      -4.7165      2.00000
      5      -4.6233      2.00000
      6      -4.6233      2.00000
      7      -4.4780      2.00000
      8      -4.4780      2.00000
      9      -4.2168      2.00000
     10      -4.2168      2.00000
     11      -3.7527      2.00000
     12      -3.7527      2.00000
     13       2.1063      2.00000
     14       2.1063      2.00000
     15       6.5760      2.00000
     16       6.5760      2.00000
     17       9.1710      2.00000
     18       9.1710      2.00000
     19      16.4705      0.00000
     20      16.4705      0.00000
     21      17.9159      0.00000
     22      17.9159      0.00000
     23      20.4259      0.00000
     24      20.4259      0.00000
     25      20.8793      0.00000
     26      20.8793      0.00000
     27      29.7735      0.00000
     28      29.7735      0.00000
     29      29.9191      0.00000
     30      29.9191      0.00000
     31      32.3805      0.00000
     32      32.3805      0.00000

 k-point   354 :       0.1250    0.5000   -0.1667
  band No.  band energies     occupation 
      1      -6.3607      2.00000
      2      -6.3607      2.00000
      3      -4.6574      2.00000
      4      -4.6574      2.00000
      5      -4.5299      2.00000
      6      -4.5299      2.00000
      7      -4.4592      2.00000
      8      -4.4592      2.00000
      9      -4.1710      2.00000
     10      -4.1710      2.00000
     11      -3.5733      2.00000
     12      -3.5733      2.00000
     13       2.2373      2.00000
     14       2.2373      2.00000
     15       6.4928      2.00000
     16       6.4928      2.00000
     17       8.2005      2.00000
     18       8.2005      2.00000
     19      16.2687      0.00000
     20      16.2687      0.00000
     21      17.5673      0.00000
     22      17.5673      0.00000
     23      20.7119      0.00000
     24      20.7119      0.00000
     25      21.6809      0.00000
     26      21.6809      0.00000
     27      27.5977      0.00000
     28      27.5977      0.00000
     29      32.1998      0.00000
     30      32.1998      0.00000
     31      33.9489      0.00000
     32      33.9489      0.00000

 k-point   355 :       0.2500    0.5000   -0.1667
  band No.  band energies     occupation 
      1      -6.5719      2.00000
      2      -6.5719      2.00000
      3      -4.6407      2.00000
      4      -4.6407      2.00000
      5      -4.4027      2.00000
      6      -4.4027      2.00000
      7      -4.3149      2.00000
      8      -4.3149      2.00000
      9      -4.1160      2.00000
     10      -4.1160      2.00000
     11      -2.9163      2.00000
     12      -2.9163      2.00000
     13       2.5327      2.00000
     14       2.5327      2.00000
     15       5.6690      2.00000
     16       5.6690      2.00000
     17       7.0575      2.00000
     18       7.0575      2.00000
     19      14.0065      0.00000
     20      14.0065      0.00000
     21      18.7730      0.00000
     22      18.7730      0.00000
     23      20.9569      0.00000
     24      20.9569      0.00000
     25      23.1955      0.00000
     26      23.1955      0.00000
     27      26.1547      0.00000
     28      26.1547      0.00000
     29      34.9871      0.00000
     30      34.9871      0.00000
     31      36.5227      0.00000
     32      36.5227      0.00000

 k-point   356 :       0.3750    0.5000   -0.1667
  band No.  band energies     occupation 
      1      -6.7328      2.00000
      2      -6.7328      2.00000
      3      -4.6834      2.00000
      4      -4.6834      2.00000
      5      -4.2726      2.00000
      6      -4.2726      2.00000
      7      -4.1813      2.00000
      8      -4.1813      2.00000
      9      -4.0920      2.00000
     10      -4.0920      2.00000
     11      -1.9045      2.00000
     12      -1.9045      2.00000
     13       2.3077      2.00000
     14       2.3077      2.00000
     15       4.8924      2.00000
     16       4.8924      2.00000
     17       6.4521      2.00000
     18       6.4521      2.00000
     19      12.4680      0.00000
     20      12.4680      0.00000
     21      18.3367      0.00000
     22      18.3367      0.00000
     23      22.0009      0.00000
     24      22.0009      0.00000
     25      24.5153      0.00000
     26      24.5153      0.00000
     27      25.6829      0.00000
     28      25.6829      0.00000
     29      36.4308      0.00000
     30      36.4308      0.00000
     31      39.0979      0.00000
     32      39.0979      0.00000

 k-point   357 :       0.5000    0.5000   -0.1667
  band No.  band energies     occupation 
      1      -6.7904      2.00000
      2      -6.7904      2.00000
      3      -4.7025      2.00000
      4      -4.7025      2.00000
      5      -4.2285      2.00000
      6      -4.2285      2.00000
      7      -4.1393      2.00000
      8      -4.1393      2.00000
      9      -4.0686      2.00000
     10      -4.0686      2.00000
     11      -1.2266      2.00000
     12      -1.2266      2.00000
     13       1.6596      2.00000
     14       1.6596      2.00000
     15       5.5121      2.00000
     16       5.5121      2.00000
     17       5.5844      2.00000
     18       5.5844      2.00000
     19      11.9765      0.00000
     20      11.9765      0.00000
     21      17.9997      0.00000
     22      17.9997      0.00000
     23      22.4667      0.00000
     24      22.4667      0.00000
     25      24.5946      0.00000
     26      24.5946      0.00000
     27      26.0988      0.00000
     28      26.0988      0.00000
     29      36.7517      0.00000
     30      36.7517      0.00000
     31      39.8881      0.00000
     32      39.8881      0.00000

 k-point   358 :      -0.3750    0.5000   -0.1667
  band No.  band energies     occupation 
      1      -6.7328      2.00000
      2      -6.7328      2.00000
      3      -4.6834      2.00000
      4      -4.6834      2.00000
      5      -4.2726      2.00000
      6      -4.2726      2.00000
      7      -4.1813      2.00000
      8      -4.1813      2.00000
      9      -4.0920      2.00000
     10      -4.0920      2.00000
     11      -1.9045      2.00000
     12      -1.9045      2.00000
     13       2.3077      2.00000
     14       2.3077      2.00000
     15       4.8924      2.00000
     16       4.8924      2.00000
     17       6.4521      2.00000
     18       6.4521      2.00000
     19      12.4680      0.00000
     20      12.4680      0.00000
     21      18.3367      0.00000
     22      18.3367      0.00000
     23      22.0009      0.00000
     24      22.0009      0.00000
     25      24.5153      0.00000
     26      24.5153      0.00000
     27      25.6829      0.00000
     28      25.6829      0.00000
     29      36.4308      0.00000
     30      36.4308      0.00000
     31      39.0979      0.00000
     32      39.0979      0.00000

 k-point   359 :      -0.2500    0.5000   -0.1667
  band No.  band energies     occupation 
      1      -6.5719      2.00000
      2      -6.5719      2.00000
      3      -4.6407      2.00000
      4      -4.6407      2.00000
      5      -4.4027      2.00000
      6      -4.4027      2.00000
      7      -4.3149      2.00000
      8      -4.3149      2.00000
      9      -4.1160      2.00000
     10      -4.1160      2.00000
     11      -2.9163      2.00000
     12      -2.9163      2.00000
     13       2.5327      2.00000
     14       2.5327      2.00000
     15       5.6690      2.00000
     16       5.6690      2.00000
     17       7.0575      2.00000
     18       7.0575      2.00000
     19      14.0065      0.00000
     20      14.0065      0.00000
     21      18.7730      0.00000
     22      18.7730      0.00000
     23      20.9569      0.00000
     24      20.9569      0.00000
     25      23.1955      0.00000
     26      23.1955      0.00000
     27      26.1547      0.00000
     28      26.1547      0.00000
     29      34.9871      0.00000
     30      34.9871      0.00000
     31      36.5227      0.00000
     32      36.5227      0.00000

 k-point   360 :      -0.1250    0.5000   -0.1667
  band No.  band energies     occupation 
      1      -6.3607      2.00000
      2      -6.3607      2.00000
      3      -4.6574      2.00000
      4      -4.6574      2.00000
      5      -4.5299      2.00000
      6      -4.5299      2.00000
      7      -4.4592      2.00000
      8      -4.4592      2.00000
      9      -4.1710      2.00000
     10      -4.1710      2.00000
     11      -3.5733      2.00000
     12      -3.5733      2.00000
     13       2.2373      2.00000
     14       2.2373      2.00000
     15       6.4928      2.00000
     16       6.4928      2.00000
     17       8.2005      2.00000
     18       8.2005      2.00000
     19      16.2687      0.00000
     20      16.2687      0.00000
     21      17.5673      0.00000
     22      17.5673      0.00000
     23      20.7119      0.00000
     24      20.7119      0.00000
     25      21.6809      0.00000
     26      21.6809      0.00000
     27      27.5977      0.00000
     28      27.5977      0.00000
     29      32.1998      0.00000
     30      32.1998      0.00000
     31      33.9489      0.00000
     32      33.9489      0.00000

 k-point   361 :       0.0000   -0.3750   -0.1667
  band No.  band energies     occupation 
      1      -7.0620      2.00000
      2      -6.1563      2.00000
      3      -4.6619      2.00000
      4      -4.6370      2.00000
      5      -4.5993      2.00000
      6      -4.5545      2.00000
      7      -4.5225      2.00000
      8      -4.4148      2.00000
      9      -4.2801      2.00000
     10      -4.1578      2.00000
     11      -4.1165      2.00000
     12      -2.9493      2.00000
     13       1.5836      2.00000
     14       3.3945      2.00000
     15       5.4246      2.00000
     16       7.7814      2.00000
     17       8.2839      2.00000
     18       9.4854      2.00000
     19      15.2882      0.00000
     20      16.1827      0.00000
     21      18.4114      0.00000
     22      19.2364      0.00000
     23      20.6191      0.00000
     24      20.6976      0.00000
     25      21.3191      0.00000
     26      21.3938      0.00000
     27      28.0233      0.00000
     28      28.1915      0.00000
     29      28.7356      0.00000
     30      31.6983      0.00000
     31      31.8899      0.00000
     32      32.9682      0.00000

 k-point   362 :       0.1250   -0.3750   -0.1667
  band No.  band energies     occupation 
      1      -7.0062      2.00000
      2      -6.2404      2.00000
      3      -4.6394      2.00000
      4      -4.6307      2.00000
      5      -4.5228      2.00000
      6      -4.4939      2.00000
      7      -4.4886      2.00000
      8      -4.4444      2.00000
      9      -4.2111      2.00000
     10      -4.1368      2.00000
     11      -4.1001      2.00000
     12      -2.6963      2.00000
     13       1.7572      2.00000
     14       3.5241      2.00000
     15       5.3315      2.00000
     16       7.3116      2.00000
     17       7.6803      2.00000
     18       8.5422      2.00000
     19      16.0486      0.00000
     20      16.2647      0.00000
     21      17.8912      0.00000
     22      18.1206      0.00000
     23      20.4160      0.00000
     24      21.1306      0.00000
     25      21.7447      0.00000
     26      22.1394      0.00000
     27      26.0973      0.00000
     28      29.5024      0.00000
     29      29.8845      0.00000
     30      30.9896      0.00000
     31      32.9440      0.00000
     32      35.6606      0.00000

 k-point   363 :       0.2500   -0.3750   -0.1667
  band No.  band energies     occupation 
      1      -6.9001      2.00000
      2      -6.4252      2.00000
      3      -4.6274      2.00000
      4      -4.6067      2.00000
      5      -4.4502      2.00000
      6      -4.3788      2.00000
      7      -4.3621      2.00000
      8      -4.3478      2.00000
      9      -4.1507      2.00000
     10      -4.1096      2.00000
     11      -3.8097      2.00000
     12      -2.0645      2.00000
     13       2.2323      2.00000
     14       3.7573      2.00000
     15       4.3092      2.00000
     16       6.5563      2.00000
     17       6.8574      2.00000
     18       7.2666      2.00000
     19      14.4240      0.00000
     20      14.7679      0.00000
     21      18.7590      0.00000
     22      19.1145      0.00000
     23      20.2629      0.00000
     24      21.0930      0.00000
     25      22.3845      0.00000
     26      23.5107      0.00000
     27      25.3388      0.00000
     28      27.5036      0.00000
     29      32.0019      0.00000
     30      34.8226      0.00000
     31      35.0784      0.00000
     32      37.8616      0.00000

 k-point   364 :       0.3750   -0.3750   -0.1667
  band No.  band energies     occupation 
      1      -6.8161      2.00000
      2      -6.6054      2.00000
      3      -4.6674      2.00000
      4      -4.6576      2.00000
      5      -4.3328      2.00000
      6      -4.2951      2.00000
      7      -4.2429      2.00000
      8      -4.1762      2.00000
      9      -4.1421      2.00000
     10      -4.0983      2.00000
     11      -2.9886      2.00000
     12      -1.4915      2.00000
     13       2.2317      2.00000
     14       3.3346      2.00000
     15       3.7565      2.00000
     16       6.0133      2.00000
     17       6.3759      2.00000
     18       6.6137      2.00000
     19      12.9469      0.00000
     20      13.1466      0.00000
     21      18.3922      0.00000
     22      18.8732      0.00000
     23      21.2222      0.00000
     24      21.9757      0.00000
     25      23.7046      0.00000
     26      24.3184      0.00000
     27      25.5595      0.00000
     28      26.0735      0.00000
     29      34.4232      0.00000
     30      36.0996      0.00000
     31      38.2308      0.00000
     32      39.5996      0.00000

 k-point   365 :       0.5000   -0.3750   -0.1667
  band No.  band energies     occupation 
      1      -6.7328      2.00000
      2      -6.7328      2.00000
      3      -4.6834      2.00000
      4      -4.6834      2.00000
      5      -4.2726      2.00000
      6      -4.2726      2.00000
      7      -4.1813      2.00000
      8      -4.1813      2.00000
      9      -4.0920      2.00000
     10      -4.0920      2.00000
     11      -1.9045      2.00000
     12      -1.9045      2.00000
     13       2.3077      2.00000
     14       2.3077      2.00000
     15       4.8924      2.00000
     16       4.8924      2.00000
     17       6.4521      2.00000
     18       6.4521      2.00000
     19      12.4680      0.00000
     20      12.4680      0.00000
     21      18.3367      0.00000
     22      18.3367      0.00000
     23      22.0009      0.00000
     24      22.0009      0.00000
     25      24.5153      0.00000
     26      24.5153      0.00000
     27      25.6829      0.00000
     28      25.6829      0.00000
     29      36.4308      0.00000
     30      36.4308      0.00000
     31      39.0979      0.00000
     32      39.0979      0.00000

 k-point   366 :      -0.3750   -0.3750   -0.1667
  band No.  band energies     occupation 
      1      -6.8161      2.00000
      2      -6.6054      2.00000
      3      -4.6674      2.00000
      4      -4.6576      2.00000
      5      -4.3328      2.00000
      6      -4.2951      2.00000
      7      -4.2429      2.00000
      8      -4.1762      2.00000
      9      -4.1421      2.00000
     10      -4.0983      2.00000
     11      -2.9886      2.00000
     12      -1.4915      2.00000
     13       2.2317      2.00000
     14       3.3346      2.00000
     15       3.7565      2.00000
     16       6.0133      2.00000
     17       6.3759      2.00000
     18       6.6137      2.00000
     19      12.9469      0.00000
     20      13.1466      0.00000
     21      18.3922      0.00000
     22      18.8732      0.00000
     23      21.2222      0.00000
     24      21.9757      0.00000
     25      23.7046      0.00000
     26      24.3184      0.00000
     27      25.5595      0.00000
     28      26.0735      0.00000
     29      34.4232      0.00000
     30      36.0996      0.00000
     31      38.2308      0.00000
     32      39.6354      0.00000

 k-point   367 :      -0.2500   -0.3750   -0.1667
  band No.  band energies     occupation 
      1      -6.9001      2.00000
      2      -6.4252      2.00000
      3      -4.6274      2.00000
      4      -4.6067      2.00000
      5      -4.4502      2.00000
      6      -4.3788      2.00000
      7      -4.3621      2.00000
      8      -4.3478      2.00000
      9      -4.1507      2.00000
     10      -4.1096      2.00000
     11      -3.8097      2.00000
     12      -2.0645      2.00000
     13       2.2323      2.00000
     14       3.7573      2.00000
     15       4.3092      2.00000
     16       6.5563      2.00000
     17       6.8574      2.00000
     18       7.2666      2.00000
     19      14.4240      0.00000
     20      14.7679      0.00000
     21      18.7590      0.00000
     22      19.1145      0.00000
     23      20.2629      0.00000
     24      21.0930      0.00000
     25      22.3845      0.00000
     26      23.5107      0.00000
     27      25.3388      0.00000
     28      27.5036      0.00000
     29      32.0019      0.00000
     30      34.8226      0.00000
     31      35.0784      0.00000
     32      37.8616      0.00000

 k-point   368 :      -0.1250   -0.3750   -0.1667
  band No.  band energies     occupation 
      1      -7.0062      2.00000
      2      -6.2404      2.00000
      3      -4.6394      2.00000
      4      -4.6307      2.00000
      5      -4.5228      2.00000
      6      -4.4939      2.00000
      7      -4.4886      2.00000
      8      -4.4444      2.00000
      9      -4.2111      2.00000
     10      -4.1368      2.00000
     11      -4.1001      2.00000
     12      -2.6963      2.00000
     13       1.7572      2.00000
     14       3.5241      2.00000
     15       5.3315      2.00000
     16       7.3116      2.00000
     17       7.6803      2.00000
     18       8.5422      2.00000
     19      16.0486      0.00000
     20      16.2647      0.00000
     21      17.8912      0.00000
     22      18.1206      0.00000
     23      20.4160      0.00000
     24      21.1306      0.00000
     25      21.7447      0.00000
     26      22.1394      0.00000
     27      26.0973      0.00000
     28      29.5024      0.00000
     29      29.8845      0.00000
     30      30.9896      0.00000
     31      32.9440      0.00000
     32      35.6606      0.00000

 k-point   369 :       0.0000   -0.2500   -0.1667
  band No.  band energies     occupation 
      1      -8.0092      2.00000
      2      -6.4723      2.00000
      3      -4.6416      2.00000
      4      -4.5299      2.00000
      5      -4.5136      2.00000
      6      -4.5001      2.00000
      7      -4.4121      2.00000
      8      -4.3308      2.00000
      9      -4.3184      2.00000
     10      -4.2757      2.00000
     11      -4.1144      2.00000
     12      -2.3473      2.00000
     13       2.0706      2.00000
     14       4.7512      2.00000
     15       5.1355      2.00000
     16       7.2492      2.00000
     17       8.6727      2.00000
     18       9.2288      2.00000
     19      13.8580      0.00000
     20      15.4943      0.00000
     21      18.9437      0.00000
     22      20.2224      0.00000
     23      21.4175      0.00000
     24      22.0683      0.00000
     25      22.1644      0.00000
     26      23.0536      0.00000
     27      26.3542      0.00000
     28      26.6696      0.00000
     29      27.2590      0.00000
     30      28.9103      0.00000
     31      34.4422      0.00000
     32      35.0032      0.00000

 k-point   370 :       0.1250   -0.2500   -0.1667
  band No.  band energies     occupation 
      1      -7.8388      2.00000
      2      -6.4431      2.00000
      3      -4.6005      2.00000
      4      -4.5632      2.00000
      5      -4.5287      2.00000
      6      -4.4624      2.00000
      7      -4.4456      2.00000
      8      -4.3544      2.00000
      9      -4.3143      2.00000
     10      -4.2421      2.00000
     11      -4.1099      2.00000
     12      -2.2115      2.00000
     13       2.3140      2.00000
     14       4.6739      2.00000
     15       5.2111      2.00000
     16       6.3333      2.00000
     17       8.1687      2.00000
     18       8.7605      2.00000
     19      14.9405      0.00000
     20      16.0575      0.00000
     21      19.0785      0.00000
     22      19.5677      0.00000
     23      20.5961      0.00000
     24      20.7443      0.00000
     25      22.4836      0.00000
     26      22.9157      0.00000
     27      25.3338      0.00000
     28      27.5579      0.00000
     29      29.5515      0.00000
     30      30.8050      0.00000
     31      32.0719      0.00000
     32      35.7260      0.00000

 k-point   371 :       0.2500   -0.2500   -0.1667
  band No.  band energies     occupation 
      1      -7.3971      2.00000
      2      -6.4001      2.00000
      3      -4.5835      2.00000
      4      -4.5467      2.00000
      5      -4.4957      2.00000
      6      -4.4832      2.00000
      7      -4.4337      2.00000
      8      -4.3543      2.00000
      9      -4.2929      2.00000
     10      -4.1416      2.00000
     11      -4.1028      2.00000
     12      -1.9560      2.00000
     13       2.8712      2.00000
     14       3.6716      2.00000
     15       4.9968      2.00000
     16       5.9979      2.00000
     17       7.0737      2.00000
     18       8.1583      2.00000
     19      15.7301      0.00000
     20      15.7478      0.00000
     21      19.2016      0.00000
     22      19.2356      0.00000
     23      19.5047      0.00000
     24      20.5732      0.00000
     25      21.8763      0.00000
     26      23.4362      0.00000
     27      24.8395      0.00000
     28      29.5240      0.00000
     29      29.5493      0.00000
     30      33.0181      0.00000
     31      33.2128      0.00000
     32      36.2638      0.00000

 k-point   372 :       0.3750   -0.2500   -0.1667
  band No.  band energies     occupation 
      1      -6.9001      2.00000
      2      -6.4252      2.00000
      3      -4.6274      2.00000
      4      -4.6067      2.00000
      5      -4.4502      2.00000
      6      -4.3788      2.00000
      7      -4.3621      2.00000
      8      -4.3478      2.00000
      9      -4.1507      2.00000
     10      -4.1096      2.00000
     11      -3.8097      2.00000
     12      -2.0645      2.00000
     13       2.2323      2.00000
     14       3.7573      2.00000
     15       4.3092      2.00000
     16       6.5563      2.00000
     17       6.8574      2.00000
     18       7.2666      2.00000
     19      14.4240      0.00000
     20      14.7679      0.00000
     21      18.7590      0.00000
     22      19.1145      0.00000
     23      20.2629      0.00000
     24      21.0930      0.00000
     25      22.3845      0.00000
     26      23.5107      0.00000
     27      25.3388      0.00000
     28      27.5036      0.00000
     29      32.0019      0.00000
     30      34.8226      0.00000
     31      35.0784      0.00000
     32      37.8616      0.00000

 k-point   373 :       0.5000   -0.2500   -0.1667
  band No.  band energies     occupation 
      1      -6.5719      2.00000
      2      -6.5719      2.00000
      3      -4.6407      2.00000
      4      -4.6407      2.00000
      5      -4.4027      2.00000
      6      -4.4027      2.00000
      7      -4.3149      2.00000
      8      -4.3149      2.00000
      9      -4.1160      2.00000
     10      -4.1160      2.00000
     11      -2.9163      2.00000
     12      -2.9163      2.00000
     13       2.5327      2.00000
     14       2.5327      2.00000
     15       5.6690      2.00000
     16       5.6690      2.00000
     17       7.0575      2.00000
     18       7.0575      2.00000
     19      14.0065      0.00000
     20      14.0065      0.00000
     21      18.7730      0.00000
     22      18.7730      0.00000
     23      20.9569      0.00000
     24      20.9569      0.00000
     25      23.1955      0.00000
     26      23.1955      0.00000
     27      26.1547      0.00000
     28      26.1547      0.00000
     29      34.9871      0.00000
     30      34.9871      0.00000
     31      36.5227      0.00000
     32      36.5227      0.00000

 k-point   374 :      -0.3750   -0.2500   -0.1667
  band No.  band energies     occupation 
      1      -6.9001      2.00000
      2      -6.4252      2.00000
      3      -4.6274      2.00000
      4      -4.6067      2.00000
      5      -4.4502      2.00000
      6      -4.3788      2.00000
      7      -4.3621      2.00000
      8      -4.3478      2.00000
      9      -4.1507      2.00000
     10      -4.1096      2.00000
     11      -3.8097      2.00000
     12      -2.0645      2.00000
     13       2.2323      2.00000
     14       3.7573      2.00000
     15       4.3092      2.00000
     16       6.5563      2.00000
     17       6.8574      2.00000
     18       7.2666      2.00000
     19      14.4240      0.00000
     20      14.7679      0.00000
     21      18.7590      0.00000
     22      19.1145      0.00000
     23      20.2629      0.00000
     24      21.0930      0.00000
     25      22.3845      0.00000
     26      23.5107      0.00000
     27      25.3388      0.00000
     28      27.5036      0.00000
     29      32.0019      0.00000
     30      34.8226      0.00000
     31      35.0784      0.00000
     32      37.8616      0.00000

 k-point   375 :      -0.2500   -0.2500   -0.1667
  band No.  band energies     occupation 
      1      -7.3971      2.00000
      2      -6.4001      2.00000
      3      -4.5835      2.00000
      4      -4.5467      2.00000
      5      -4.4957      2.00000
      6      -4.4832      2.00000
      7      -4.4337      2.00000
      8      -4.3543      2.00000
      9      -4.2929      2.00000
     10      -4.1416      2.00000
     11      -4.1028      2.00000
     12      -1.9560      2.00000
     13       2.8712      2.00000
     14       3.6716      2.00000
     15       4.9968      2.00000
     16       5.9979      2.00000
     17       7.0737      2.00000
     18       8.1583      2.00000
     19      15.7301      0.00000
     20      15.7478      0.00000
     21      19.2016      0.00000
     22      19.2356      0.00000
     23      19.5047      0.00000
     24      20.5732      0.00000
     25      21.8763      0.00000
     26      23.4362      0.00000
     27      24.8395      0.00000
     28      29.5240      0.00000
     29      29.5493      0.00000
     30      33.0181      0.00000
     31      33.2128      0.00000
     32      36.2638      0.00000

 k-point   376 :      -0.1250   -0.2500   -0.1667
  band No.  band energies     occupation 
      1      -7.8388      2.00000
      2      -6.4431      2.00000
      3      -4.6005      2.00000
      4      -4.5632      2.00000
      5      -4.5287      2.00000
      6      -4.4624      2.00000
      7      -4.4456      2.00000
      8      -4.3544      2.00000
      9      -4.3143      2.00000
     10      -4.2421      2.00000
     11      -4.1099      2.00000
     12      -2.2115      2.00000
     13       2.3140      2.00000
     14       4.6739      2.00000
     15       5.2111      2.00000
     16       6.3333      2.00000
     17       8.1687      2.00000
     18       8.7605      2.00000
     19      14.9405      0.00000
     20      16.0575      0.00000
     21      19.0785      0.00000
     22      19.5677      0.00000
     23      20.5961      0.00000
     24      20.7443      0.00000
     25      22.4836      0.00000
     26      22.9157      0.00000
     27      25.3338      0.00000
     28      27.5579      0.00000
     29      29.5515      0.00000
     30      30.8050      0.00000
     31      32.0719      0.00000
     32      35.7260      0.00000

 k-point   377 :       0.0000   -0.1250   -0.1667
  band No.  band energies     occupation 
      1      -8.6614      2.00000
      2      -6.7748      2.00000
      3      -4.6861      2.00000
      4      -4.4883      2.00000
      5      -4.4504      2.00000
      6      -4.4486      2.00000
      7      -4.3612      2.00000
      8      -4.3353      2.00000
      9      -4.2586      2.00000
     10      -4.1748      2.00000
     11      -4.0964      2.00000
     12      -2.2607      2.00000
     13       2.6048      2.00000
     14       5.3177      2.00000
     15       6.4658      2.00000
     16       6.9848      2.00000
     17       8.8308      2.00000
     18       8.9782      2.00000
     19      12.3643      0.00000
     20      14.6068      0.00000
     21      18.2205      0.00000
     22      21.5336      0.00000
     23      21.8854      0.00000
     24      23.7862      0.00000
     25      23.8368      0.00000
     26      24.6758      0.00000
     27      25.5412      0.00000
     28      26.3532      0.00000
     29      26.7270      0.00000
     30      27.4598      0.00000
     31      31.3610      0.00000
     32      35.0866      0.00000

 k-point   378 :       0.1250   -0.1250   -0.1667
  band No.  band energies     occupation 
      1      -8.4459      2.00000
      2      -6.6783      2.00000
      3      -4.6551      2.00000
      4      -4.5025      2.00000
      5      -4.4711      2.00000
      6      -4.4243      2.00000
      7      -4.4104      2.00000
      8      -4.3401      2.00000
      9      -4.2866      2.00000
     10      -4.2168      2.00000
     11      -4.1030      2.00000
     12      -2.2080      2.00000
     13       2.6691      2.00000
     14       5.3423      2.00000
     15       5.7445      2.00000
     16       6.6614      2.00000
     17       8.1823      2.00000
     18       9.1343      2.00000
     19      13.3849      0.00000
     20      15.1970      0.00000
     21      18.6966      0.00000
     22      21.1536      0.00000
     23      21.3032      0.00000
     24      22.0218      0.00000
     25      23.6288      0.00000
     26      23.6763      0.00000
     27      25.2677      0.00000
     28      26.4021      0.00000
     29      28.2322      0.00000
     30      28.9964      0.00000
     31      32.8742      0.00000
     32      34.4438      0.00000

 k-point   379 :       0.2500   -0.1250   -0.1667
  band No.  band energies     occupation 
      1      -7.8388      2.00000
      2      -6.4431      2.00000
      3      -4.6005      2.00000
      4      -4.5632      2.00000
      5      -4.5287      2.00000
      6      -4.4624      2.00000
      7      -4.4456      2.00000
      8      -4.3544      2.00000
      9      -4.3143      2.00000
     10      -4.2421      2.00000
     11      -4.1099      2.00000
     12      -2.2115      2.00000
     13       2.3140      2.00000
     14       4.6739      2.00000
     15       5.2111      2.00000
     16       6.3333      2.00000
     17       8.1687      2.00000
     18       8.7605      2.00000
     19      14.9405      0.00000
     20      16.0575      0.00000
     21      19.0785      0.00000
     22      19.5677      0.00000
     23      20.5961      0.00000
     24      20.7443      0.00000
     25      22.4836      0.00000
     26      22.9157      0.00000
     27      25.3338      0.00000
     28      27.5579      0.00000
     29      29.5515      0.00000
     30      30.8050      0.00000
     31      32.0719      0.00000
     32      35.7260      0.00000

 k-point   380 :       0.3750   -0.1250   -0.1667
  band No.  band energies     occupation 
      1      -7.0062      2.00000
      2      -6.2404      2.00000
      3      -4.6394      2.00000
      4      -4.6307      2.00000
      5      -4.5228      2.00000
      6      -4.4939      2.00000
      7      -4.4886      2.00000
      8      -4.4444      2.00000
      9      -4.2111      2.00000
     10      -4.1368      2.00000
     11      -4.1001      2.00000
     12      -2.6963      2.00000
     13       1.7572      2.00000
     14       3.5241      2.00000
     15       5.3315      2.00000
     16       7.3116      2.00000
     17       7.6803      2.00000
     18       8.5422      2.00000
     19      16.0486      0.00000
     20      16.2647      0.00000
     21      17.8912      0.00000
     22      18.1206      0.00000
     23      20.4160      0.00000
     24      21.1306      0.00000
     25      21.7447      0.00000
     26      22.1394      0.00000
     27      26.0973      0.00000
     28      29.5024      0.00000
     29      29.8845      0.00000
     30      30.9896      0.00000
     31      32.9440      0.00000
     32      35.6606      0.00000

 k-point   381 :       0.5000   -0.1250   -0.1667
  band No.  band energies     occupation 
      1      -6.3607      2.00000
      2      -6.3607      2.00000
      3      -4.6574      2.00000
      4      -4.6574      2.00000
      5      -4.5299      2.00000
      6      -4.5299      2.00000
      7      -4.4592      2.00000
      8      -4.4592      2.00000
      9      -4.1710      2.00000
     10      -4.1710      2.00000
     11      -3.5733      2.00000
     12      -3.5733      2.00000
     13       2.2373      2.00000
     14       2.2373      2.00000
     15       6.4928      2.00000
     16       6.4928      2.00000
     17       8.2005      2.00000
     18       8.2005      2.00000
     19      16.2687      0.00000
     20      16.2687      0.00000
     21      17.5673      0.00000
     22      17.5673      0.00000
     23      20.7119      0.00000
     24      20.7119      0.00000
     25      21.6809      0.00000
     26      21.6809      0.00000
     27      27.5977      0.00000
     28      27.5977      0.00000
     29      32.1998      0.00000
     30      32.1998      0.00000
     31      33.9489      0.00000
     32      33.9489      0.00000

 k-point   382 :      -0.3750   -0.1250   -0.1667
  band No.  band energies     occupation 
      1      -7.0062      2.00000
      2      -6.2404      2.00000
      3      -4.6394      2.00000
      4      -4.6307      2.00000
      5      -4.5228      2.00000
      6      -4.4939      2.00000
      7      -4.4886      2.00000
      8      -4.4444      2.00000
      9      -4.2111      2.00000
     10      -4.1368      2.00000
     11      -4.1001      2.00000
     12      -2.6963      2.00000
     13       1.7572      2.00000
     14       3.5241      2.00000
     15       5.3315      2.00000
     16       7.3116      2.00000
     17       7.6803      2.00000
     18       8.5422      2.00000
     19      16.0486      0.00000
     20      16.2647      0.00000
     21      17.8912      0.00000
     22      18.1206      0.00000
     23      20.4160      0.00000
     24      21.1306      0.00000
     25      21.7447      0.00000
     26      22.1394      0.00000
     27      26.0973      0.00000
     28      29.5024      0.00000
     29      29.8845      0.00000
     30      30.9896      0.00000
     31      32.9440      0.00000
     32      35.6606      0.00000

 k-point   383 :      -0.2500   -0.1250   -0.1667
  band No.  band energies     occupation 
      1      -7.8388      2.00000
      2      -6.4431      2.00000
      3      -4.6005      2.00000
      4      -4.5632      2.00000
      5      -4.5287      2.00000
      6      -4.4624      2.00000
      7      -4.4456      2.00000
      8      -4.3544      2.00000
      9      -4.3143      2.00000
     10      -4.2421      2.00000
     11      -4.1099      2.00000
     12      -2.2115      2.00000
     13       2.3140      2.00000
     14       4.6739      2.00000
     15       5.2111      2.00000
     16       6.3333      2.00000
     17       8.1687      2.00000
     18       8.7605      2.00000
     19      14.9405      0.00000
     20      16.0575      0.00000
     21      19.0785      0.00000
     22      19.5677      0.00000
     23      20.5961      0.00000
     24      20.7443      0.00000
     25      22.4836      0.00000
     26      22.9157      0.00000
     27      25.3338      0.00000
     28      27.5579      0.00000
     29      29.5515      0.00000
     30      30.8050      0.00000
     31      32.0719      0.00000
     32      35.7260      0.00000

 k-point   384 :      -0.1250   -0.1250   -0.1667
  band No.  band energies     occupation 
      1      -8.4459      2.00000
      2      -6.6783      2.00000
      3      -4.6551      2.00000
      4      -4.5025      2.00000
      5      -4.4711      2.00000
      6      -4.4243      2.00000
      7      -4.4104      2.00000
      8      -4.3401      2.00000
      9      -4.2866      2.00000
     10      -4.2168      2.00000
     11      -4.1030      2.00000
     12      -2.2080      2.00000
     13       2.6691      2.00000
     14       5.3423      2.00000
     15       5.7445      2.00000
     16       6.6614      2.00000
     17       8.1823      2.00000
     18       9.1343      2.00000
     19      13.3849      0.00000
     20      15.1970      0.00000
     21      18.6966      0.00000
     22      21.1536      0.00000
     23      21.3032      0.00000
     24      22.0218      0.00000
     25      23.6288      0.00000
     26      23.6763      0.00000
     27      25.2677      0.00000
     28      26.4021      0.00000
     29      28.2322      0.00000
     30      28.9964      0.00000
     31      32.8742      0.00000
     32      34.4438      0.00000


--------------------------------------------------------------------------------------------------------


 soft charge-density along one line, spin component           1
         0         1         2         3         4         5         6         7         8         9
 total charge-density along one line
 
 pseudopotential strength for first ion, spin component:           1
 -8.198   0.000   0.000  -0.000  -0.000  -1.497  -0.000  -0.000
  0.000  -8.198  -0.000  -0.000   0.000  -0.000  -1.497   0.000
  0.000  -0.000  -8.172   0.000   0.000  -0.000   0.000  -1.512
 -0.000  -0.000   0.000  -8.198   0.000   0.000   0.000  -0.000
 -0.000   0.000   0.000   0.000  -8.172   0.000  -0.000  -0.000
 -1.497  -0.000  -0.000   0.000   0.000   5.975   0.000   0.000
 -0.000  -1.497   0.000   0.000  -0.000   0.000   5.975   0.000
 -0.000   0.000  -1.512  -0.000  -0.000   0.000   0.000   5.983
  0.000   0.000  -0.000  -1.497  -0.000  -0.000  -0.000   0.000
  0.000  -0.000  -0.000  -0.000  -1.512   0.000   0.000   0.000
  0.000  -0.000  -0.000  -0.000   0.000  -0.000   0.000   0.000
  0.000   0.000   0.000   0.000   0.000  -0.000  -0.000  -0.000
  0.000  -0.000  -0.000   0.000  -0.000  -0.000   0.000  -0.000
  0.000   0.000   0.000   0.000   0.000  -0.000  -0.000  -0.000
  0.000   0.000  -0.000  -0.000   0.000  -0.000  -0.000  -0.000
 -0.000   0.000  -0.000  -0.000  -0.000  -0.000   0.000   0.000
 -0.000  -0.000  -0.000   0.000  -0.000   0.000  -0.000   0.000
 -0.000  -0.000   0.000   0.000   0.000  -0.000   0.000   0.000
 total augmentation occupancy for first ion, spin component:           1
  2.016   0.000  -0.000   0.000   0.000   0.031   0.000  -0.000   0.000   0.000   0.000  -0.000   0.000  -0.000   0.000   0.000
  0.000   2.016   0.000  -0.000  -0.000   0.000   0.031  -0.000  -0.000  -0.000   0.000  -0.000  -0.000   0.000   0.000   0.000
 -0.000   0.000   2.020   0.000   0.000  -0.000   0.000   0.062   0.000   0.000   0.000   0.000  -0.000   0.000   0.000   0.000
  0.000  -0.000   0.000   2.016  -0.000  -0.000  -0.000  -0.000   0.031  -0.000   0.000  -0.000   0.000  -0.000   0.000   0.000
  0.000  -0.000   0.000  -0.000   2.020  -0.000  -0.000   0.000  -0.000   0.062  -0.000  -0.000  -0.000  -0.000   0.000  -0.000
  0.031   0.000  -0.000  -0.000  -0.000   0.054   0.000  -0.000   0.000   0.000  -0.000  -0.000   0.000  -0.000   0.000   0.000
  0.000   0.031   0.000  -0.000  -0.000   0.000   0.054  -0.000  -0.000   0.000   0.000   0.000  -0.000   0.000  -0.000  -0.000
 -0.000  -0.000   0.062  -0.000   0.000  -0.000  -0.000   0.229  -0.000   0.000   0.000   0.000   0.000   0.000  -0.000   0.000
  0.000  -0.000   0.000   0.031  -0.000   0.000  -0.000  -0.000   0.054   0.000  -0.000  -0.000  -0.000   0.000  -0.000   0.000
  0.000  -0.000   0.000  -0.000   0.062   0.000   0.000   0.000   0.000   0.229  -0.000  -0.000  -0.000   0.000  -0.000   0.000
  0.000   0.000   0.000   0.000  -0.000  -0.000   0.000   0.000  -0.000  -0.000   1.224   0.042   0.000   0.000   0.000  -0.000
 -0.000  -0.000   0.000  -0.000  -0.000  -0.000   0.000   0.000  -0.000  -0.000   0.042   0.003   0.000   0.000   0.000   0.000
  0.000  -0.000  -0.000   0.000  -0.000   0.000  -0.000   0.000  -0.000  -0.000   0.000   0.000   1.026  -0.000  -0.000   0.025
 -0.000   0.000   0.000  -0.000  -0.000  -0.000   0.000   0.000   0.000   0.000   0.000   0.000  -0.000   1.026   0.000  -0.000
  0.000   0.000   0.000   0.000   0.000   0.000  -0.000  -0.000  -0.000  -0.000   0.000   0.000  -0.000   0.000   1.026  -0.000
  0.000   0.000   0.000   0.000  -0.000   0.000  -0.000   0.000   0.000   0.000  -0.000   0.000   0.025  -0.000  -0.000   0.001
 -0.000   0.000   0.000  -0.000  -0.000  -0.000   0.000   0.000  -0.000   0.000   0.000   0.000  -0.000   0.025  -0.000  -0.000
 -0.000   0.000   0.000   0.000   0.000  -0.000   0.000  -0.000   0.000  -0.000   0.000   0.000   0.000   0.000   0.025  -0.000


------------------------ aborting loop because EDIFF is reached ----------------------------------------


    CHARGE:  cpu time      0.0985: real time      0.0990
    FORLOC:  cpu time      0.0002: real time      0.0004
    FORNL :  cpu time      0.1316: real time      0.1502
    STRESS:  cpu time      3.4259: real time      3.5328
    FORCOR:  cpu time      0.0052: real time      0.0112
    FORHAR:  cpu time      0.0016: real time      0.0029
    MIXING:  cpu time      0.0005: real time      0.0005
    OFIELD:  cpu time      0.0001: real time      0.0011

  FORCE on cell =-STRESS in cart. coord.  units (eV):
  Direction    XX          YY          ZZ          XY          YZ          ZX
  --------------------------------------------------------------------------------------
  Alpha Z   270.24219   270.24219   270.24219
  Ewald   -1219.63657 -1219.63657 -1219.53154    -0.00000    -0.00000    -0.00000
  Hartree   289.52800   289.52800   289.57410     0.00000     0.00000     0.00000
  E(xc)    -202.93745  -202.93745  -202.93734    -0.00000    -0.00000    -0.00000
  Local     295.87441   295.87441   295.73551     0.00000    -0.00000    -0.00000
  n-local    -6.90648    -6.90648    -6.90042     0.00000     0.00000     0.00000
  augment   248.01287   248.01287   248.00964    -0.00000    -0.00000    -0.00000
  Kinetic   335.35962   335.35962   335.34171    -0.00000     0.00000     0.00000
  Fock        0.00000     0.00000     0.00000     0.00000     0.00000     0.00000
  -------------------------------------------------------------------------------------
  Total       9.53659     9.53659     9.53385     0.00000    -0.00000    -0.00000
  in kB     457.23849   457.23863   457.10733     0.00002    -0.00001    -0.00001
  external pressure =      457.19 kB  Pullay stress =        0.00 kB


 VOLUME and BASIS-vectors are now :
 -----------------------------------------------------------------------------
  energy-cutoff  :      600.00
  volume of cell :       33.42
      direct lattice vectors                 reciprocal lattice vectors
     2.029111234 -2.029111234  0.000000000     0.246413302 -0.246413302  0.000000000
     2.029111234  2.029111234  0.000000000     0.246413302  0.246413302  0.000000000
     0.000000000  0.000000000  4.058064931     0.000000000  0.000000000  0.246422868

  length of vectors
     2.869596627  2.869596627  4.058064931     0.348481034  0.348481034  0.246422868


 FORCES acting on ions
    electron-ion (+dipol)            ewald-force                    non-local-force                 convergence-correction
 -----------------------------------------------------------------------------------------------
   0.494E-06 0.713E-06 0.658E-04   -.261E-13 0.521E-14 -.206E-13   0.454E-06 0.262E-06 0.670E-04   -.923E-06 -.954E-06 0.273E-06
   -.650E-06 -.759E-06 0.656E-04   0.205E-13 -.255E-14 0.272E-13   -.454E-06 0.757E-07 0.666E-04   0.105E-05 0.700E-06 0.782E-06
   0.683E-06 0.124E-05 0.392E-05   -.131E-13 -.114E-14 0.714E-14   0.842E-07 0.148E-06 0.550E-04   -.732E-06 -.123E-05 -.961E-07
   -.220E-06 -.236E-06 0.412E-05   0.397E-15 -.861E-15 -.138E-13   -.997E-07 -.925E-07 0.549E-04   0.248E-06 0.300E-06 -.262E-06
 -----------------------------------------------------------------------------------------------
   0.308E-06 0.959E-06 0.139E-03   -.182E-13 0.662E-15 -.476E-16   -.159E-07 0.393E-06 0.244E-03   -.361E-06 -.119E-05 0.697E-06
 
 
 POSITION                                       TOTAL-FORCE (eV/Angst)
 -----------------------------------------------------------------------------------
      2.02911     -0.67637      2.02640         0.000000     -0.000000      0.000037
      2.02911      1.35274      4.05544        -0.000000     -0.000000      0.000037
      2.02911     -0.67637      4.05544         0.000000      0.000000     -0.000037
      2.02911      1.35274      2.02640        -0.000000     -0.000000     -0.000037
 -----------------------------------------------------------------------------------
    total drift:                               -0.000000      0.000000      0.000384


--------------------------------------------------------------------------------------------------------



  FREE ENERGIE OF THE ION-ELECTRON SYSTEM (eV)
  ---------------------------------------------------
  free  energy   TOTEN  =       -21.71394933 eV

  energy  without entropy=      -21.71394933  energy(sigma->0) =      -21.71394933
 


--------------------------------------------------------------------------------------------------------


    POTLOK:  cpu time      0.0081: real time      0.0100


--------------------------------------------------------------------------------------------------------


     LOOP+:  cpu time     92.7820: real time     94.3013
    4ORBIT:  cpu time      0.0000: real time      0.0000

 total amount of memory used by VASP MPI-rank0   166389. kBytes
=======================================================================

   base      :      30000. kBytes
   nonl-proj :     127475. kBytes
   fftplans  :        283. kBytes
   grid      :       1098. kBytes
   one-center:         62. kBytes
   wavefun   :       7471. kBytes
 
  
  
 General timing and accounting informations for this job:
 ========================================================
  
                  Total CPU time used (sec):       95.601
                            User time (sec):       93.474
                          System time (sec):        2.128
                         Elapsed time (sec):       99.168
  
                   Maximum memory used (kb):      253848.
                   Average memory used (kb):          N/A
  
                          Minor page faults:        51844
                          Major page faults:            0
                 Voluntary context switches:         3507
