Ga N 
 1.0000000000000000
     1.5149879074238479   -2.6240360285105586    0.0000000000000000
     1.5149879074238479    2.6240360285105586    0.0000000000000000
     0.0000000000000000    0.0000000000000000    4.9358873385404651
 Ga  N  
   2   2
Cartesian
  1.5149879074238466 -0.8746786761701857  2.4647470724612170
  1.5149879074238470  0.8746786761701869  4.9326907417314478
  1.5149879074238466 -0.8746786761701857  4.3220980181584787
  1.5149879074238470  0.8746786761701869  1.8541543488882453
