Ga N
 1.0000000000000000
     4.2815537116996714    0.0000000000000000    0.0000000000000000
     0.0000000000000000    4.2815537116996714    0.0000000000000000
     0.0000000000000000    0.0000000000000000    4.2815537116996714
 Ga  N
   4   4
Direct
  0.0000000000000000  0.0000000000000000  0.0000000000000000
  0.0000000000000000  0.5000000000000000  0.5000000000000000
  0.5000000000000000  0.0000000000000000  0.5000000000000000
  0.5000000000000000  0.5000000000000000  0.0000000000000000
  0.2500000000000000  0.2500000000000000  0.2500000000000000
  0.2500000000000000  0.7499999999999999  0.7499999999999999
  0.7499999999999999  0.2500000000000000  0.7499999999999999
  0.7499999999999999  0.7499999999999999  0.2500000000000000
