Hf O 
 1.0000000000000000
     5.2390601337432896    0.0000000000000000   -0.0000000000000050
     0.0000000000000000    5.0758502946391850    0.0000000000000000
     0.0067821602946395   -0.2464256936289052    5.0955997726142641
 Hf  O  
   4   8
Direct
 -0.0016859285791329  0.0014909476265716 -0.0118238228263847
  0.4981599321694623  0.0090987668806921  0.4702862344686953
  0.4672617874719101  0.4818381042185009 -0.0087844083830187
 -0.0327327838943526  0.5292193235626975  0.4675369963100481
  0.2381856376175588  0.2891096432874963  0.2649961767472866
  0.7381623474096560  0.2211263301618422  0.2286389768997555
  0.2895562068932026  0.1610516025842030  0.7804954301386474
  0.7556137299064452  0.3433614803813055  0.7361379791491588
  0.2381507750688626  0.7896872553695680  0.2299395501588432
  0.7380286353072461  0.7215766427149541  0.1942344278077707
  0.2553046547480494  0.6680166026319131  0.7227643257851017
  0.7893158620248775  0.8503688960697805  0.6784798951631200
