Hf O 
 1.0000000000000000
     5.2390601337432896   -0.0000000000000000   -0.0000000000000050
     0.0000000000000000    5.0758502946391850    0.0000000000000000
     0.0060985612161471   -0.3477140926631829    5.1035481302149481
 Hf  O  
   4   8
Direct
  0.0108215478888803 -0.0099084898464954 -0.0096278266806018
  0.5107275122335224  0.0198327506679033  0.4684426846165534
  0.4657085461772155  0.4801136786537809 -0.0070703625795400
 -0.0342465880297291  0.5301996673875393  0.4661091875810171
  0.2405219347155694  0.2877883692022509  0.2659292402659518
  0.7424580095920711  0.2220907944568188  0.2185527068517761
  0.2897333953681664  0.1566483657106275  0.7798887973744647
  0.7401254247310042  0.3478670647598064  0.7196583552572198
  0.2424978417561333  0.7880102073438374  0.2401685745971393
  0.7404086418875758  0.7221796352550256  0.1935226880595226
  0.2400869359185377  0.6626782116914224  0.7392519680542653
  0.7896639950651794  0.8540323022618709  0.6793311746364411
