Hf O 
 1.0000000000000000
     5.2390601337432896   -0.0000000000000000   -0.0000000000000050
     0.0000000000000000    5.0758502946391850    0.0000000000000000
     0.0029742021458133   -0.6626377710745572    5.1298159593122090
 Hf  O  
   4   8
Direct
  0.0255734771262052 -0.0251875368723530  0.0021282976046844
  0.5256130015839509  0.0485858544135403  0.4588565452924807
  0.4524277209531402  0.4749916019459436  0.0028518810258361
 -0.0475247928037610  0.5485050643537807  0.4582837676696588
  0.2335549891979821  0.2840235123804847  0.2752780437016286
  0.7445348569027874  0.2395246837568547  0.1886708709565775
  0.3094723625436550  0.1199619850166800  0.7941743321116449
  0.6744338593275079  0.4021543304827925  0.6717597221763263
  0.2445785811378627  0.7839318443409428  0.2721366188190559
  0.7335398266212185  0.7393711880912498  0.1860422613831811
  0.1744774417910742  0.6212772578912884  0.7891777110558094
  0.8094779553312136  0.9036280339253671  0.6669916201988733
