Hf O 
 1.0000000000000000
     5.2390601337432896   -0.0000000000000000   -0.0000000000000050
     0.0000000000000000    5.0758502946391850    0.0000000000000000
     0.0005079580046796   -0.7202144169737066    5.1122222283558409
 Hf  O  
   4   8
Direct
  0.0079833383391471 -0.0096139742620583  0.0014700294121348
  0.5079918386245661  0.0700425080808464  0.4539459148523182
  0.4317288081792590  0.4904023712077643  0.0015672713116884
 -0.0682587264272542  0.5700447947350382  0.4538829001854453
  0.2116476034843578  0.2974604966660376  0.2764327163971050
  0.7280390596340752  0.2629841404553967  0.1792112080745105
  0.3147086535205897  0.1132912678988953  0.8035980765598726
  0.6255295691574640  0.4469886846038405  0.6522555677023679
  0.2280394355759569  0.7974621370103171  0.2762005256187777
  0.7116479795070982  0.7629650243367224  0.1790364903193800
  0.1255305058629099  0.6134417750042052  0.8031785794309233
  0.8147072808449028  0.9471602141642973  0.6518461106271577
