Hf O 
 1.0000000000000000
     5.2390601337432896    0.0000000000000000   -0.0000000000000050
     0.0000000000000000    5.0758502946391850    0.0000000000000000
     0.0107290427628296   -0.0157058157520527    5.0742541947180451
 Hf  O  
   4   8
Direct
 -0.0160556557164337  0.0172843815339185 -0.0032575454046167
  0.4836936145568656 -0.0411377471130498  0.4673129951291949
  0.4832898521936015  0.4584600636626930 -0.0033151047394070
 -0.0169428648896627  0.5180911533100310  0.4674323396350963
  0.2363637191839291  0.2566977153474251  0.2692164656909874
  0.7360184822354813  0.2196247181202738  0.2672858794936935
  0.3294861083805661  0.1289296431284084  0.7968135081410062
  0.8291536855291434  0.3467451199198618  0.7952512027197683
  0.2358669051006921  0.7568004294760736  0.1974166318306275
  0.7362091811314685  0.7195466533707415  0.1955045560076548
  0.3282899919483795  0.6296491170078943  0.6696375428035545
  0.8286712176132698  0.8475211217984019  0.6680058597422047
