Hf O 
 1.0000000000000000
     5.2390601337432896    0.0000000000000000   -0.0000000000000050
     0.0000000000000000    5.0758502946391850    0.0000000000000000
     0.0075303237437550   -0.1311234800695082    5.0890305884098597
 Hf  O  
   4   8
Direct
 -0.0161868017698327  0.0157339146545358 -0.0119474511937934
  0.4836352115814836 -0.0065189163224259  0.4704229471084369
  0.4695477609625282  0.4805788076472985 -0.0090384817518413
 -0.0305039870714523  0.5291108194563371  0.4678931567238943
  0.2342883352018766  0.2863554675411945  0.2645264881794879
  0.7328858252645546  0.2224184741696613  0.2419164358500327
  0.2945435153844493  0.1598839454846749  0.7832811625047358
  0.7774310388260397  0.3436148290275606  0.7579722601189918
  0.2327777472327618  0.7870345016449088  0.2169942232773371
  0.7340776119871966  0.7229907726291153  0.1948574043391669
  0.2767315585144936  0.6663001399224461  0.7013792848076130
  0.7939961152203558  0.8500200116761927  0.6758927262513296
