Hf O 
 1.0000000000000000
     5.2390601337432896    0.0000000000000000   -0.0000000000000050
     0.0000000000000000    5.0758502946391850    0.0000000000000000
     0.0053963490819315   -0.4584098436953791    5.1136926839594761
 Hf  O  
   4   8
Direct
  0.0221562042999521 -0.0201484987040247 -0.0064439680986538
  0.5221373228945526  0.0294833161862945  0.4656076465852168
  0.4641429177721416  0.4770832482475267 -0.0043702962813945
 -0.0357850187905403  0.5325285416157678  0.4636941015202339
  0.2425545390873635  0.2852863340637357  0.2673999465938304
  0.7466989291764027  0.2243270435074075  0.2074872276089293
  0.2920125564894956  0.1490128590494371  0.7802528611812780
  0.7240546546930690  0.3564086524603111  0.7028827233607240
  0.2467692253401532  0.7851208560926077  0.2514145698116910
  0.7424763200962033  0.7240407417149690  0.1922867860662276
  0.2241817277027158  0.6532847420532388  0.7561171716446453
  0.7920417265778810  0.8609058046269102  0.6792339411277941
