Hf O 
 1.0000000000000000
     5.2390601337432896    0.0000000000000000   -0.0000000000000050
     0.0000000000000000    5.0758502946391850    0.0000000000000000
    -0.0000009960458357    0.0000007838421547    5.0765253638718626
 Hf  O  
   4   8
Direct
 -0.0001646199275566 -0.0017685717450112 -0.0001378307825164
  0.4998348910168131 -0.0632379051580022  0.4683512896875960
  0.4998346196269988  0.4367617330999016 -0.0001371977937141
 -0.0001645249407212  0.4982312369152092  0.4683516485071110
  0.2507974065796048  0.2326212965670046  0.2721407231007401
  0.7507975413508498  0.2023610603977684  0.2721406012292369
  0.3545052302860330  0.1021019168429338  0.8035578941626504
  0.8545060558325296  0.3328820343439774  0.8035584646980528
  0.2507984249167786  0.7326209648010045  0.1960741286281256
  0.7507987555673389  0.7023609290356007  0.1960746407970662
  0.3545064941429251  0.6021014261777691  0.6646565111551601
  0.8545072141396256  0.8328826051654012  0.6646557311506825
