Hf O 
 1.0000000000000000
     5.2390601337432896    0.0000000000000000   -0.0000000000000050
     0.0000000000000000    5.0758502946391850    0.0000000000000000
    -0.0000482592934292    0.0000046433449702    5.1658609027842237
 Hf  O  
   4   8
Direct
  0.0079883223079164  0.0399828044660731 -0.0035304794924679
  0.5079897650526346 -0.0324583019552657  0.5072070627593334
  0.5079867911907944  0.4675396212341126 -0.0035277637340876
  0.0079922220914783  0.5399800801867746  0.5072102539405471
  0.1880923191412089  0.3517471974971038  0.2117837764640982
  0.6880917897766989  0.1557651825498279  0.2117822107094500
  0.2917510514136796  0.1884725121574028  0.7568397173534199
  0.7917532667389018  0.3190514160403106  0.7568466250726308
  0.1880936695519538  0.8517468527775099  0.2918885502086822
  0.6880930053942323  0.6557654591171334  0.2918903508763837
  0.2917625521536471  0.6884715315140890  0.7468281517537854
  0.7917647187091013  0.8190522121654813  0.7468215812219536
