Hf O 
 1.0000000000000000
     5.2390601337432896   -0.0000000000000000   -0.0000000000000050
     0.0000000000000000    5.0758502946391850    0.0000000000000000
     0.0000077746337907    0.0000011568716082    5.1154248038152339
 Hf  O  
   4   8
Direct
 -0.0167516608009466  0.0243786562179584  0.0074810027110791
  0.4832488858935950 -0.0374335630695065  0.4861310230664445
  0.4832471016551586  0.4625660001152937  0.0074826593107681
 -0.0167498439737798  0.5243784543611710  0.4861328975184823
  0.2223726219998182  0.2845968480439126  0.2639708552675852
  0.7223712978807942  0.2023476918266867  0.2639658129974977
  0.3154921811579000  0.1400329291521699  0.7983146416394012
  0.8154925386859139  0.3469186843567716  0.7983149030239637
  0.2223649199260389  0.7845982808568011  0.2296508028605170
  0.7223634669783517  0.7023463938813689  0.2296558679389457
  0.3154923735000997  0.6400338015238227  0.6953035773571908
  0.8154927949953769  0.8469180830730607  0.6953030981640962
