Hf O 
 1.0000000000000000
     5.2390601337432896   -0.0000000000000000   -0.0000000000000050
     0.0000000000000000    5.0758502946391850    0.0000000000000000
    -0.0000081827026187    0.0000011154163349    5.0746263266451352
 Hf  O  
   4   8
Direct
  0.0164388911650291  0.0457561786785158 -0.0073781323023862
  0.5164387107099844 -0.0146824729790643  0.5225704699174275
  0.5164390579437982  0.4853173423503525 -0.0073784505652779
  0.0164384950815654  0.5457559080717430  0.5225698676134464
  0.1682874911765301  0.3764467168564595  0.1926139372407783
  0.6682886086448082  0.1546271429962273  0.1926159936609527
  0.2650225581430080  0.2468966467430534  0.7218115112817690
  0.7650228122701096  0.2841759890150133  0.7218135548276016
  0.1682866114206969  0.8764468661846905  0.3225779850656316
  0.6682874415164237  0.6546268162586057  0.3225763658928542
  0.2650216585749243  0.7468964740833859  0.7933800852949480
  0.7650219047180884  0.7841760186260809  0.7933784836249402
