Hf O 
 1.0000000000000000
     5.2390601337432896   -0.0000000000000000   -0.0000000000000050
     0.0000000000000000    5.0758502946391850    0.0000000000000000
    -0.0000018782487240    0.0000038815064500    5.2104181086091632
 Hf  O  
   4   8
Direct
  0.0000568262168832  0.0414997148433668 -0.0000277035457596
  0.5000562112187992 -0.0415325649665825  0.5000024172728383
  0.5000556852144715  0.4584673675764792 -0.0000260547807268
  0.0000571648857229  0.5414997253714984  0.5000035369134498
  0.1914360985400743  0.3402272578786137  0.2219484999150903
  0.6914352771582523  0.1597365017067384  0.2219458414001378
  0.3085607896630694  0.1598398645209981  0.7779159596248332
  0.8085620155616098  0.3401311016150132  0.7779190536620588
  0.1914361246982741  0.8402272983804593  0.2780275147967592
  0.6914352481897513  0.6597365956922061  0.2780300607120510
  0.3085610754723690  0.6598401030130262  0.7220600184570561
  0.8085618172832003  0.8401304638263533  0.7220575259198106
