Hf O 
 1.0000000000000000
     5.2390601337432896    0.0000000000000000   -0.0000000000000050
     0.0000000000000000    5.0758502946391850    0.0000000000000000
    -0.0000087273125129    0.0000011118552330    5.0749880911500371
 Hf  O  
   4   8
Direct
 -0.0164583920572606  0.0147301176161551  0.0073793074386556
  0.4835421325643851 -0.0456372053107558  0.4775104311862785
  0.4835417889385375  0.4543625149052026  0.0073789952789619
 -0.0164580729300653  0.5147298745042280  0.4775098649758303
  0.2349215603359037  0.2534265658950059  0.2780593409978319
  0.7349213322779167  0.2156672459568992  0.2780570806315117
  0.3315186321949558  0.1237113482253801  0.8072901097371665
  0.8315175190717504  0.3453813106314195  0.8072880020158464
  0.2349226357741970  0.7534266224936261  0.2068303465139382
  0.7349223541598772  0.7156672133226917  0.2068323823373128
  0.3315195823274278  0.6237111973174295  0.6775993471184009
  0.8315186957907633  0.8453815795171877  0.6776011923276876
