Hf O 
 1.0000000000000000
     5.2390601337432896   -0.0000000000000000   -0.0000000000000050
     0.0000000000000000    5.0758502946391850    0.0000000000000000
     0.0000065984397867    0.0000010259004835    5.1148965763556919
 Hf  O  
   4   8
Direct
  0.0168991586991454  0.0373980336141808 -0.0075443497951514
  0.5168960964940584 -0.0243335631228347  0.5139320320958765
  0.5168979172640998  0.4756661327666709 -0.0075427208956485
  0.0168973025727808  0.5373975741996639  0.5139338512062336
  0.1844379840644759  0.3600714646218193  0.2015076532448906
  0.6844376981826238  0.1529857609697841  0.2015073702497990
  0.2775362921964197  0.2156871349067166  0.7357682158756254
  0.7775376873050601  0.2973769661159093  0.7357733014930821
  0.1844380010400522  0.8600705869421055  0.3048777285820122
  0.6844375903285509  0.6529864630263362  0.3048780586959448
  0.2775446933880241  0.7156857544951692  0.7706135266286769
  0.7775461124394906  0.7973783652170134  0.7706085113361288
