Hf O 
 1.0000000000000000
     5.2390601337432896   -0.0000000000000000   -0.0000000000000050
     0.0000000000000000    5.0758502946391850    0.0000000000000000
    -0.0000497195524408    0.0000048647962509    5.1661965824401417
 Hf  O  
   4   8
Direct
 -0.0078289930294660  0.0324833723099847  0.0034584037941776
  0.4921657670947488 -0.0400333604661433  0.4928383176948035
  0.4921696345333680  0.4599638167572193  0.0034610242903264
 -0.0078317184175641  0.5324812570500805  0.4928415833402407
  0.2081740692575186  0.3117331835373163  0.2429241862218860
  0.7081719069770899  0.1807127536318512  0.2429175682387032
  0.3118736334357473  0.1483627408394329  0.7880359250906968
  0.8118742627615931  0.3440945914045108  0.7880375984336486
  0.2081630004946796  0.8117340878627839  0.2533871502525863
  0.7081608623906657  0.6807119667029624  0.2533935607035276
  0.3118725158034017  0.6483631717400128  0.7082711775102482
  0.8118731459295989  0.8440942771738268  0.7082692366476153
