Hf O 
 1.0000000000000000
     5.2914507350807227    0.0000000000000000   -0.0000000000000051
     0.0000000000000000    5.1266087975855772    0.0000000000000000
    -0.0000004799226094    0.0000003543564038    5.0502039247530739
 Hf  O  
   4   8
Direct
  0.0000000000000001  0.0000000000000000  0.9999999999999999
  0.4999995860981987  0.0650192911975134  0.5317835208691940
  0.5000000436235964  0.5650192587985386  0.0000000555351009
  0.9999991348600222  0.4999998289971288  0.5317830625443228
  0.1432064123019559  0.1673951564620830  0.3340793158779307
  0.6432074917005869  0.3976123392171473  0.3340768417607105
  0.2516518198125900  0.3028574144965904  0.8024622091643714
  0.7516514181233899  0.2621562010534134  0.8024632069960993
  0.1432087338261679  0.6673956094907250  0.1977075310769746
  0.6432097471197262  0.8976122460619846  0.1977096809647397
  0.2516541514657326  0.8028568703314788  0.7293244795818040
  0.7516539724768142  0.7621570574470838  0.7293234910863352
