Hf O 
 1.0000000000000000
     5.2390601337432896   -0.0000000000000000   -0.0000000000000050
     0.0000000000000000    5.0758502946391841    0.0000000000000000
    -0.0000019374952181    0.0000012597650566    5.0654257155213696
 Hf  O  
   4   8
Direct
  1.0000053879652504  0.9987490400468486  1.0000605264529123
  0.5000045695769457  0.9362403147439606  0.4681545011699439
  0.5000048488803734  0.4362404137287120  1.0000610770864753
  1.0000050434236627  0.4987493400173775  0.4681554019027493
  0.2506320359044897  0.2320131822762906  0.2726683365286469
  0.7506319308423139  0.2029714760729167  0.2726682720558110
  0.3545021825253936  0.1024965514557943  0.8033060052776277
  0.8545016629683587  0.3324884353847094  0.8033036000540891
  0.2506321084363647  0.7320129815766820  0.1955453415981251
  0.7506325740603280  0.7029718256900374  0.1955449071973406
  0.3545029741753775  0.6024971010948235  0.6649082170359624
  0.8545021698342800  0.8324880643597026  0.6649104181785409
