Hf O 
 1.0000000000000000
     5.3319594514527200   -0.0454819943612026   -0.0743462192147970
    -0.3540244549963543    5.0901340779887860    0.0253061506120040
     0.0700211269414403   -0.0203708927746924    5.0949060030827695
 Hf  O  
   4   8
Direct
 -0.0081840401234113 -0.0072047433947661  0.0096783262891450
  0.0174258460546843  0.4668142898137563  0.5096806666306287
  0.4751853741631887 -0.0086823241232912  0.4683145644680264
  0.5340844481107638  0.4681127594943645 -0.0316262886698707
  0.2950456412398798  0.2645179205721367  0.2389155186814344
  0.2133280292265215  0.2155026532584494  0.7388352873557468
  0.1549553795928809  0.7775164060780961  0.2877470985981213
  0.3489607086970683  0.7204891408508061  0.7488187151298595
  0.7958279469122186  0.2437368270419484  0.2390617373011343
  0.7141164680109520  0.1948354131667793  0.7391256877913217
  0.6603737421750402  0.7386965863107460  0.2490759110060771
  0.8544073440978963  0.6818501396769153  0.7879368272365115
