Hf O 
 1.0000000000000000
     5.1231250590177533    0.0000042084779159    0.0000158067310727
     0.0000039317551207    5.0811377329711700    0.0217236309900496
     0.0000161207724657    0.0225086226111526    5.1259603939116314
 Hf  O  
   4   8
Direct
 -0.0130820508352010 -0.0096749536017567  0.0151414636190108
 -0.0179942536828704  0.4880813409202150  0.5122605301559711
  0.4839643512031713 -0.0096759589563689  0.5151426053014380
  0.4888931374723726  0.4880843389071063  0.0122622071202303
  0.2647860233326090  0.2415325049553938  0.2338531546494035
  0.2060963715708350  0.2415236639639340  0.7338528687216584
  0.1975514183789429  0.7552546873679514  0.3067817702108801
  0.2733336085743687  0.7552457082014632  0.8067805629214926
  0.7653559788715917  0.2352555768960776  0.2943297614818621
  0.7055263914770451  0.2352482040444045  0.7943302663914676
  0.6990491124146886  0.7468637697001231  0.2317974522076541
  0.7718368801448315  0.7468573921668458  0.7317979996593242
