Hf O 
 1.0000000000000000
     5.1215691603821840    0.0000036162772076    0.0000157392646307
     0.0000033390435558    5.0811899501940845    0.0221630610294588
     0.0000160763371432    0.0229909294174842    5.1273841704118119
 Hf  O  
   4   8
Direct
 -0.0130759023047496 -0.0097063680260351  0.0152230918415780
 -0.0180915322034868  0.4880249823561242  0.5122357347990375
  0.4839038678420479 -0.0097075428286935  0.5152241615461483
  0.4889361195571391  0.4880279540627386  0.0122372929071207
  0.2642276765899213  0.2415666505898741  0.2333481786228172
  0.2066000140065531  0.2415576206611816  0.7333479351855127
  0.1978778788767470  0.7553366756969655  0.3073440812353044
  0.2729524257254923  0.7553274765936959  0.8073428452528268
  0.7648189782891839  0.2351897566743428  0.2948067001433379
  0.7060087156568839  0.2351822175646975  0.7948071917698210
  0.6994329160070929  0.7468216507380305  0.2313829526487194
  0.7713983629682519  0.7468151089650321  0.7313835072039941
