Hf O 
 1.0000000000000000
     5.1567240153038219   -0.0000000546104568    0.0000018860816583
    -0.0000000496473213    5.1573103687862298   -0.0000011338248004
     0.0000023482385315   -0.0000011453569267    5.1565262161038294
 Hf  O  
   4   8
Direct
  0.0001506899430626  0.0000782267419218 -0.0001506144046986
 -0.0001472693091590  0.4999234691970162  0.4998494334508302
  0.4998527223953484  0.0000781738447000  0.4998494126316528
  0.5001506830482972  0.4999234128366972 -0.0001505955200318
  0.1962998186304493  0.3038573234181018  0.1963075262435787
  0.3037029427119341  0.3038571898497101  0.6963076877031671
  0.1959036751406300  0.8039504628869499  0.3038372973359976
  0.3041001812256341  0.8039504493221087  0.8038374258074192
  0.6962998227973162  0.1961443657502055  0.1963077099375284
  0.8037029405921786  0.1961444908297463  0.6963078754016360
  0.6959036722272595  0.6960511229305706  0.3038375404811773
  0.8041001874745521  0.6960511232256041  0.8038376662720355
