Hf O 
 1.0000000000000000
     5.1567240153038245   -0.0000000546104514    0.0000018860816569
    -0.0000000496473163    5.1573103687862307   -0.0000011338247985
     0.0000023482385302   -0.0000011453569248    5.1565262161038277
 Hf  O  
   4   8
Direct
 -0.0001506899430593 -0.0000782267419183  0.0001506144047017
  0.0001472693091604  0.5000765308029932  0.5001505665491570
  0.5001472776046424 -0.0000781738446975  0.5001505873683320
  0.4998493169517083  0.5000765871633106  0.0001505955200271
  0.1958998125254551  0.3039488767744032  0.1961623337279625
  0.3040963277727369  0.3039488770694451  0.6961624595188188
  0.1962970594078205  0.8038555091702673  0.3036921245983553
  0.3037001772026912  0.8038556342498103  0.8036922900624663
  0.6958998187743770  0.1960495506779057  0.1961625741925710
  0.8040963248593688  0.1960495371130610  0.6961627026639974
  0.6962970572880642  0.6961428101502957  0.3036923122968272
  0.8037001813695585  0.6961426765819020  0.8036924737564164
