Ga N 
 1.0000000000000000
     1.7926486192146260   -2.1744695290000000   -0.0000116750000000
     1.7926486202116831    2.1744695300000001    0.0000116860000000
     0.0000000119646879    0.0000219880000000    4.6887578330000004
 Ga  N  
   2   2
Direct
  0.6545117614939641  0.3454885874565198  0.5218916589854051
  0.2534757930606024  0.7465245590039685  0.0218936953240356
  0.6862525554816939  0.3137477908199698  0.9214048793766956
  0.2217252397600366  0.7782751096204171  0.4214044666186203
