Hf O 
 1.0000000000000000
     5.3596082494180992    0.0000003477377711    0.0000106379579409
     0.0000003548031736    5.0668001642420260   -0.0000017800849407
     0.0000111834349655   -0.0000018011361952    5.1051019173088275
 Hf  O  
   4   8
Direct
  0.0190477893551810  0.0020509487997825 -0.0037472090517268
 -0.0486154951299759  0.4834918199822342  0.4962518089004760
  0.4513844731379814  0.0020529618111323  0.4962517754909113
  0.5190477709209343  0.4834936640172560 -0.0037469422976164
  0.2829749958033096  0.2559584094253798  0.2282461011828867
  0.1874540788115204  0.2559571417256706  0.7282457921915685
  0.1384502460921611  0.7862013164551116  0.3233182569186059
  0.3319833270019088  0.7862026960035182  0.8233187367653477
  0.7829748832466491  0.2295850527278473  0.2282470849063418
  0.6874542691599692  0.2295861691553188  0.7282467928629526
  0.6384500098838459  0.6993420793170072  0.3233191196905629
  0.8319835322494953  0.6993407230248507  0.8233194748435985
