Hf O 
 1.0000000000000000
     5.4004085681147114    0.0000001213744418    0.0000117800703063
     0.0000001376322624    5.0716279421224302    0.0000053714181800
     0.0000123564925397    0.0000053981404715    5.1159929383641130
 Hf  O  
   4   8
Direct
  0.0427826688353813 -0.0012416497347835  0.0021959122095496
 -0.0283604522806017  0.5082910279251152  0.5021920033756615
  0.4716398866010427 -0.0012394072696724  0.5021944090007374
  0.5427829623049096  0.5082933642843702  0.0021935516710255
  0.3439037833887740  0.2237884665468745  0.1903383802746490
  0.1705171432376764  0.2237870803634864  0.6903380487534525
  0.1951290574868086  0.7545098907957389  0.2841430012140320
  0.3192980030957557  0.7545113669190604  0.7841434425468901
  0.8439037042473527  0.2832630122684344  0.1903380558278187
  0.6705172826573697  0.2832643130122446  0.6903378510858774
  0.6951287296436345  0.7525422967574042  0.2841413377154876
  0.8192982779620980  0.7525407464094594  0.7841416923477660
