Hf O 
 1.0000000000000000
     5.3596082494180237    0.0000003477376007    0.0000106379579348
     0.0000003548030112    5.0668001642418652   -0.0000017800847098
     0.0000111834349627   -0.0000018011359631    5.1051019173086996
 Hf  O  
   4   8
Direct
  0.0486155268620840 -0.0020529618110128  0.0037482245091041
 -0.0190477709207677  0.5165063359829499  0.5037469422975920
  0.4809522106449375 -0.0020509487997146  0.5037472090517715
  0.5486154951301894  0.5165081800178818  0.0037481910995073
  0.3615497539076317  0.2137986835449707  0.1766817430815140
  0.1680166729981860  0.2137973039964820  0.6766812632347436
  0.2170250041965408  0.7440415905745807  0.2717538988172688
  0.3125459211884692  0.7440428582743899  0.7717542078084955
  0.8615499901163131  0.3006579206830555  0.1766808803096763
  0.6680164677505337  0.3006592769750613  0.6766805251564517
  0.7170251167536472  0.7704149472722511  0.2717529150937015
  0.8125457308403676  0.7704138308448697  0.7717532071371928
