Hf O 
 1.0000000000000000
     5.3090960336620805    0.0000007932126999    0.0000091512543856
     0.0000007768643946    5.0594616391229783   -0.0000204305233976
     0.0000096414736714   -0.0000205666745817    5.0924480458187302
 Hf  O  
   4   8
Direct
  0.0093356014384894  0.0018059440933888 -0.0034403142372870
 -0.0555213847419082  0.4756195732958576  0.4965585150931503
  0.4444783545226256  0.0018074635286706  0.4965585249508304
  0.5093355707671987  0.4756210799942814 -0.0034401339279617
  0.2603648927682384  0.2646802218295121  0.2393199157529246
  0.1934461814691204  0.2646786082975515  0.7393197088040370
  0.1208866648381859  0.7950208997566232  0.3388087531602560
  0.3329314193451057  0.7950223531558518  0.8388093864324913
  0.7603643678466108  0.2127349980813187  0.2393231617805437
  0.6934467704300386  0.2127365273794560  0.7393229312267316
  0.6208857407768894  0.6823956231009785  0.3388112855908478
  0.8329323978737487  0.6823940649035931  0.8388119666654564
