Hf O 
 1.0000000000000000
     5.4004085681148588    0.0000001213744543    0.0000117800704267
     0.0000001376322741    5.0716279421224923    0.0000053714178903
     0.0000123564926588    0.0000053981401804    5.1159929383641298
 Hf  O  
   4   8
Direct
  0.0283601133989644  0.0012394072695965 -0.0021944090008866
 -0.0427829623048195  0.4917066357155941  0.4978064483289648
  0.4572173311647789  0.0012416497353487  0.4978040877903808
  0.5283604522806065  0.4917089720746229 -0.0021920033756280
  0.3048709425131093  0.2454901092043111  0.2158569987861455
  0.1807019969043019  0.2454886330810336  0.7158565574530946
  0.1560962166111714  0.7762115334531238  0.3096616197251955
  0.3294828567621082  0.7762129196367853  0.8096619512465325
  0.8048712703565761  0.2474577032428330  0.2158586622845852
  0.6807017220379643  0.2474592535907644  0.7158583076522196
  0.6560962957526655  0.7167369877316391  0.3096619441721697
  0.8294827173429520  0.7167356869875036  0.8096621489139959
