Hf O 
 1.0000000000000000
     5.4160886695854051    0.0000002903873063    0.0000130053467153
     0.0000003011630751    5.0734890135011304    0.0000002166598908
     0.0000135661930632    0.0000002086288158    5.1203631962938010
 Hf  O  
   4   8
Direct
  0.0363344555523083 -0.0000012419298555  0.0000007671062367
 -0.0363344176813168  0.4999987356345507  0.4999991586337927
  0.4636655444476918  0.0000012419298554  0.4999992328937619
  0.5363344176813164  0.5000012643654543  0.0000008413662055
  0.3252265073279905  0.2345067289300173  0.2031650745580950
  0.1747702834176191  0.2345051338952084  0.7031646989892986
  0.1747734926720081  0.7654932710699895  0.2968349254419047
  0.3252297165823819  0.7654948661047984  0.7968353010106981
  0.8252265131800712  0.2654932687259584  0.2031650709287721
  0.6747702226589661  0.2654949268306424  0.7031646996196278
  0.6747734868199285  0.7345067312740461  0.2968349290712278
  0.8252297773410362  0.7345050731693609  0.7968353003803696
