Hf O 
 1.0000000000000000
     5.3090960336623905    0.0000007932125085    0.0000091512539946
     0.0000007768642103    5.0594616391231080   -0.0000204305238291
     0.0000096414732932   -0.0000205666750156    5.0924480458188519
 Hf  O  
   4   8
Direct
  0.0555216454773627 -0.0018074635287464  0.0034414750491249
 -0.0093355707675263  0.5243789200059417  0.5034401339277842
  0.4906643985617662 -0.0018059440930774  0.5034403142375443
  0.5555213847422998  0.5243804267040409  0.0034414849069908
  0.3791133351613491  0.2049791002437897  0.1611912468397677
  0.1670685806548838  0.2049776468439365  0.6611906135674352
  0.2396351072318984  0.7353197781704763  0.2606800842470193
  0.3065538185309293  0.7353213917024044  0.7606802911962887
  0.8791142592233517  0.3176043768991322  0.1611887144091686
  0.6670676021261300  0.3176059350963724  0.6611880333344974
  0.7396356321533677  0.7872650019186913  0.2606768382191628
  0.8065532295702426  0.7872634726205000  0.7606770687730462
