Hf O 
 1.0000000000000000
     5.2390601337432896    0.0000000000000000   -0.0000000000000050
     0.0000000000000000    5.0758502946391850    0.0000000000000000
    -0.0000495404807614    0.0000038953514756    5.0601225277005293
 Hf  O  
   4   8
Direct
 -0.0148790723679271  0.0272503223660989  0.0071890076235944
  0.4851162266967906 -0.0434197411732378  0.4848972174391923
  0.4851164877895983  0.4565778080351772  0.0071979228987544
 -0.0148787147705210  0.5272485700008798  0.4849054706154907
  0.2209729258648981  0.2834674800732393  0.2663599419406587
  0.7209718036684183  0.2003455196124304  0.2663555690052540
  0.3200693674987667  0.1373392949441588  0.7977371794159149
  0.8200674090662027  0.3464827895744388  0.7977343712906259
  0.2209763900644137  0.7834648463715930  0.2257275486715344
  0.7209759957473806  0.7003486159668640  0.2257313021563890
  0.3200748149366178  0.6373401445339956  0.6943514137347278
  0.8200727880300974  0.8464819603612981  0.6943542574699686
