Hf O 
 1.0000000000000000
     5.2390601337432896    0.0000000000000000   -0.0000000000000050
     0.0000000000000000    5.0758502946391850    0.0000000000000000
    -0.0000084371733264    0.0000047794804849    5.0685426174621879
 Hf  O  
   4   8
Direct
  0.0145515805831911  0.0472738917790431 -0.0066599654885742
  0.5145478055153030 -0.0140669731586503  0.5229012301044764
  0.5145479621757575  0.4859332767778312 -0.0066551671034487
  0.0145519095955483  0.5472737800733161  0.5229053273633814
  0.1674053731863560  0.3770069537042864  0.1942260402387616
  0.6674078270689351  0.1562344526614121  0.1942343290439469
  0.2643008404951183  0.2462436160304639  0.7232688897328342
  0.7643007640615790  0.2870075465332222  0.7232731815454391
  0.1674051297072965  0.8770072027576279  0.3220224537361100
  0.6674070155695715  0.6562344001632964  0.3220144213886418
  0.2642982601886726  0.7462438570028563  0.7929802317305135
  0.7642980658344521  0.7870068554664912  0.7929765024573601
