Hf O 
 1.0000000000000000
     5.2390601337432896    0.0000000000000000   -0.0000000000000050
     0.0000000000000000    5.0758502946391850    0.0000000000000000
    -0.0000839661804997    0.0000017394935183    5.0354130300499200
 Hf  O  
   4   8
Direct
 -0.0052227009085735  0.0413497761931188  0.0029237624799644
  0.4947698330437909 -0.0549350412380901  0.4904040997752607
  0.4947711029915668  0.4450576216524132  0.0029322074111213
 -0.0052245625392265  0.5413428411722963  0.4904127550413326
  0.2041938870900762  0.3105764478563428  0.2483944980432312
  0.7041922305460234  0.1758100169236209  0.2483875641454706
  0.3230424887331506  0.1401548817056720  0.7872217395713443
  0.8230401607302377  0.3462459777333705  0.7872207098858306
  0.2041724651182428  0.8105766586041276  0.2449664886794704
  0.7041712059661057  0.6758099252654776  0.2449725427125945
  0.3230411303175113  0.6401609491873916  0.7061342959986123
  0.8230384419450866  0.8462399634843526  0.7061356812418338
