Hf O 
 1.0000000000000000
     5.2390601337432896    0.0000000000000000   -0.0000000000000050
     0.0000000000000000    5.0758502946391850    0.0000000000000000
    -0.0000842493694022    0.0000016822571121    5.0354711820228717
 Hf  O  
   4   8
Direct
  0.0052134057030325  0.0549329549371369 -0.0029113534610871
  0.5052093410874304 -0.0413341197307838  0.5095690998853106
  0.5052071833221207  0.4586589452971568 -0.0029029182392756
  0.0052149739054111  0.5549255205602919  0.5095777447926803
  0.1770127714692883  0.3600375175961608  0.2126421141849386
  0.6770152389554448  0.1535618705501285  0.2126435552415511
  0.2957654758080251  0.1897873738099209  0.7514200526651665
  0.7957670830976524  0.3238263096744419  0.7514271847320755
  0.1770148113163979  0.8600312352376723  0.2940034611161054
  0.6770176101340706  0.6535681126731295  0.2940017396098540
  0.2957876355948153  0.6897868129073668  0.7552204004529093
  0.7957890584467057  0.8238266177076499  0.7552142113272080
