Hf O 
 1.0000000000000000
     5.2390601337432896    0.0000000000000000   -0.0000000000000050
     0.0000000000000000    5.0758502946391850    0.0000000000000000
    -0.0000498274626728    0.0000037355778178    5.0602387890787588
 Hf  O  
   4   8
Direct
  0.0148680937621679  0.0434036974618715 -0.0071781245948737
  0.5148634612628384 -0.0272307143188779  0.5150753673137035
  0.5148635947680127  0.4727675949526172 -0.0071692289535205
  0.0148685733785628  0.5434012058445342  0.5150836084485630
  0.1800339327848064  0.3627674566917937  0.2021504474256761
  0.6800361066457533  0.1534108723576164  0.2021537477003097
  0.2789387284682386  0.2169821566866266  0.7334291208861758
  0.7789397064437942  0.2992050676757422  0.7334335670337717
  0.1800288586190369  0.8627665635521147  0.3057610303327689
  0.6800309742407362  0.6534118479718799  0.3057577479798534
  0.2789354984934034  0.7169844204161626  0.7744831902331893
  0.7789360742913937  0.7992021498845285  0.7744794007480911
