Hf O 
 1.0000000000000000
     5.2390601337432896    0.0000000000000000   -0.0000000000000050
     0.0000000000000000    5.0758502946391850    0.0000000000000000
    -0.0000080122085845    0.0000050255043118    5.0683682294900514
 Hf  O  
   4   8
Direct
 -0.0145634436699347  0.0140937547448927  0.0066748294386324
  0.4854328973512030 -0.0473014046199628  0.4770753894772330
  0.4854330286846225  0.4526985079081320  0.0066796577201280
 -0.0145630778224817  0.5140939310271818  0.4770795030822669
  0.2355629359381400  0.2542917563216249  0.2764954507381235
  0.7355627762250206  0.2124572685124408  0.2764911226891573
  0.3327458593574771  0.1230140777468543  0.8056861445711451
  0.8327437071785460  0.3437449849688829  0.8056784476788450
  0.2355656391818411  0.7542910657992902  0.2072550164217891
  0.7355660406178255  0.7124581468808233  0.2072588031688704
  0.3327464613670806  0.6230138830909202  0.6780653475498667
  0.8327446451717263  0.8437451643933981  0.6780728351428074
