Hf O 
 1.0000000000000000
     5.2390601337432896    0.0000000000000000   -0.0000000000000050
     0.0000000000000000    5.0758502946391850    0.0000000000000000
    -0.0000015935615986    0.0000066314397588    4.9793147097448749
 Hf  O  
   4   8
Direct
 -0.0000062579892679  0.0638674011227076  0.0000028566152813
  0.4999912016411300 -0.0638672376528696  0.4999843474533303
  0.4999904332208086  0.4361329915003933  0.0000091287077038
 -0.0000057901395712  0.5638675976015320  0.4999891646853350
  0.1786940377139604  0.3489070752424737  0.2263235636215918
  0.6786944914276241  0.1510911329880632  0.2263211030719925
  0.3213129014773949  0.1513717638955533  0.7735062803887838
  0.8213129779443733  0.3486317960894855  0.7735091348403259
  0.1786937297741715  0.8489064843281896  0.2736688586850445
  0.6786944015926111  0.6510907362006669  0.2736705748199820
  0.3213135824423960  0.6513732584063434  0.7264856471052235
  0.8213124755755370  0.8486309155964901  0.7264840298347688
