Ba Ti O 
 1.0000000000000000
     4.0282250161324695    0.0000000000000000    0.0000000000000000
     0.0000000000000000    4.0282250161324695    0.0000000000000000
     0.0000000000000000    0.0000000000000000    4.0282250161324695
 Ba  Ti  O  
   1   1   3
Direct
  0.0000000000000000  0.0000000000000000  0.0000000000000000
  0.4999999999999992  0.4999999999999992  0.4999999999999992
  0.4999999999999992  0.4999999999999992  0.0000000000000000
  0.0000000000000000  0.4999999999999992  0.4999999999999992
  0.4999999999999992  0.0000000000000000  0.4999999999999992
