Hf O
 1.0000000000000000
     5.2390601337432896    0.0000000000000000   -0.0000000000000050
     0.0000000000000000    5.0758502946391850    0.0000000000000000
    -0.0000974436429476   -0.8547060622199301    5.0726583893261852
 Hf  O
   4   8
Direct
 -0.0002977800433089  0.0004442761340555  0.9973296818485790
  0.4996927247016535  0.0842418018102563  0.4473710511123465
  0.4171364422398712  0.5004464265140407  0.9973394414886042
  0.9171261162719334  0.5842340660170170  0.4473731505325777
  0.2012906893235972  0.3146828498618322  0.2730344633033411
  0.7155395301801294  0.2700029135836084  0.1716763490740319
  0.2883491064606634  0.1404423292902368  0.7910996732392741
  0.6284669052906369  0.4442415813579759  0.6536051230325796
  0.2155369547855723  0.8146793712409280  0.2730379579826664
  0.7012889061789639  0.7700054762903417  0.1716691959553675
  0.1284675331372669  0.6404397489318459  0.7911075535838957
  0.7883418714735166  0.9442321589703467  0.6536073588401593
