Hf O 
 1.0000000000000000
     5.2703083253068783    0.0000007607301829    0.0000100064714533
     0.0000006718460339    5.0539678379763782    0.0009873197647150
     0.0000098379003037    0.0000799032848311    5.0838696863499475
 Hf  O  
   4   8
Direct
  0.0154051812029453  0.0070258848032312 -0.0157013558750127
 -0.0481786607232523  0.4767261896065612  0.4842058927971147
  0.4518469280856977  0.0070287550615879  0.4842974727421491
  0.5154310147236022  0.4767287985221452 -0.0157929703668303
  0.2570177753157883  0.2765939828476194  0.2331753641787883
  0.2102158304125062  0.2765909054202885  0.7331756972757620
  0.1214651549994181  0.8068233588388295  0.3359161530266596
  0.3457682224202993  0.8068162460438093  0.8359120849147873
  0.7569899550339642  0.2074834166246712  0.2328081923147992
  0.7102437232763409  0.2074861267933328  0.7328084578615243
  0.6215644113672166  0.6772950197156432  0.3355583501023027
  0.8456692478397192  0.6773012082601814  0.8355548091849544
