Hf O 
 1.0000000000000000
     5.0790153446043984   -0.0008026845770992    0.0002516163260981
    -0.0008060477110503    5.0822307395123119    0.0690248996560003
     0.0002714245401616    0.0740799028211473    5.2479680757070808
 Hf  O  
   4   8
Direct
 -0.0107638558335136 -0.0140557166070434  0.0265269513326043
 -0.0268102137301031  0.4833247282852847  0.5080095560283395
  0.4797596346436627 -0.0143431152368070  0.5266894248574880
  0.4955802147718382  0.4834171428768887  0.0079798372243747
  0.2256655786335822  0.2576288210834550  0.2103267794551053
  0.2421999168582472  0.2557856464620600  0.7105856294441534
  0.2142038353100622  0.7619243685738709  0.3366825782729213
  0.2536335601323765  0.7600959021554697  0.8364141759765868
  0.7292912038818741  0.2348702274798657  0.3160025426150123
  0.7386201056958228  0.2332269727294968  0.8158938777725572
  0.7252311917914497  0.7362595399613854  0.2116816026026481
  0.7425297094817994  0.7345409366196449  0.7116085256942623
