Hf O 
 1.0000000000000000
     5.1170996813822320    0.0000081622209329    0.0000317069773325
     0.0000078521039224    5.0716157788353025    0.0271867532859218
     0.0000330419118044    0.0283088479506848    5.1192181167567519
 Hf  O  
   4   8
Direct
 -0.0125871765150752 -0.0103011747045007  0.0168838449654887
 -0.0186174922389818  0.4870286921562059  0.5109224401324424
  0.4834571855644685 -0.0103036914784824  0.5168873605129914
  0.4894822827074187  0.4870355116029811  0.0109271057559959
  0.2615796453150681  0.2435330890455913  0.2361307924222548
  0.2092732474504682  0.2435204056748133  0.7361299322356072
  0.1985053678078826  0.7564663360093872  0.3053080244721798
  0.2723531754664569  0.7564543847220422  0.8053059543820592
  0.7627838786217671  0.2346990200958866  0.2921475692125537
  0.7080694965483249  0.2346889667135628  0.7921492113650140
  0.7002277738568896  0.7458528711991648  0.2328550504064975
  0.7706297359393971  0.7458437125562414  0.7328556935872368
