Hf O 
 1.0000000000000000
     5.2638592354723501   -0.0000023945873048    0.0000866353954964
    -0.0000039943319414    5.0789427524179063    0.0254714917164971
     0.0000934851196375    0.0252283176534169    5.0876969274694925
 Hf  O  
   4   8
Direct
  0.0012085735232923 -0.0054215664431950 -0.0015040873957843
 -0.0276760967151884  0.4845254622025641  0.4966978238082681
  0.4749313221163400 -0.0054004446499941  0.4984836769787632
  0.5037910416464980  0.4845490907265216 -0.0032940501115936
  0.2866801694147071  0.2607163634171419  0.2562754377992623
  0.1893258361220750  0.2607245265492355  0.7562801307744705
  0.1626267788679195  0.7735674378137223  0.2972969526891077
  0.3134184811945802  0.7735751556338128  0.7972974343977550
  0.7859314764482472  0.2311884673475970  0.2465219270207180
  0.6900709630103019  0.2311982127029310  0.7465174730088906
  0.6648125203703100  0.7204085344739216  0.2824325681302852
  0.8112332858705588  0.7204095210340776  0.7824328476032750
