Hf O 
 1.0000000000000000
     5.2365404635241832   -0.0000851409937498    0.0000452876729826
    -0.0000897239944690    5.0759763170396557   -0.0059153227395580
     0.0000465470041817   -0.0079152404280183    5.0761375924623628
 Hf  O  
   4   8
Direct
 -0.0129059307957412 -0.0084124540511707  0.0132876999488855
 -0.0102847758767134  0.4935408281657812  0.5134278581009849
  0.4906585874920304 -0.0083990432021315  0.5132385306395231
  0.4878731239297974  0.4935424775883196  0.0133656768215357
  0.2944192239934284  0.2456341544488442  0.2649250181895459
  0.1831116938218603  0.2456262022854357  0.7650018949285181
  0.1831963127611880  0.7465434577326414  0.2669371438104414
  0.2943340190802274  0.7464181872074730  0.7669319451321259
  0.7948411649455063  0.2449989470434456  0.2647702110635597
  0.6826550999566900  0.2449388389951387  0.7647236295841212
  0.6826482042123669  0.7480391933332595  0.2556983278662595
  0.7948531813789004  0.7478508565182437  0.7557360758530488
