Hf O 
 1.0000000000000000
     5.0863698454349286   -0.0000116143771628    0.0000333763172488
    -0.0000120509167891    5.0743142370474041    0.0472078441173932
     0.0000354040316860    0.0502632319493097    5.1843731835028413
 Hf  O  
   4   8
Direct
 -0.0120769567973177 -0.0124066422365766  0.0214907935985314
 -0.0229929165374038  0.4842073921669476  0.5095220995600978
  0.4806330755260637 -0.0124164004242893  0.5214934633529092
  0.4915460522537286  0.4842138283593059  0.0095224826096189
  0.2405768450381932  0.2487176640642557  0.2203806179925301
  0.2279540387097083  0.2486954733994590  0.7203820482734840
  0.2078871896580303  0.7587959864302986  0.3232489277831401
  0.2606473236992240  0.7587758586447600  0.8232463143185283
  0.7431464500377765  0.2334818826558704  0.3064364102588981
  0.7253875907883415  0.2334660405774837  0.8064372417122941
  0.7137333171099521  0.7411006513892222  0.2206712358847487
  0.7548019441742458  0.7410841463828048  0.7206715169185191
