Hf O 
 1.0000000000000000
     5.2811353282337468   -0.0000026695670062   -0.0000406458368751
    -0.0000031141081907    5.0705163210218718    0.0111682135356998
    -0.0000464432692739    0.0100722222684414    5.0929840335352052
 Hf  O  
   4   8
Direct
  0.0130708718504596  0.0027398451666213 -0.0112861070808861
 -0.0379752734699039  0.4816607632663253  0.4876539764263389
  0.4628151931704151  0.0027354753144642  0.4887198224006231
  0.5138642634108970  0.4816574816723748 -0.0123519804386534
  0.2755081055650689  0.2693323118376240  0.2416611089476635
  0.2003869359409448  0.2693393915914918  0.7416620784784965
  0.1428417255659452  0.7915045679478921  0.3146006068177030
  0.3330087872337760  0.7914990914059193  0.8145976269740043
  0.7751888048723182  0.2205167001439964  0.2366168712549711
  0.7007059934694367  0.2205094745324394  0.7366177983999276
  0.6440127846574242  0.6988715452639714  0.3087833612894698
  0.8318367570639753  0.6988772338016994  0.8087800366436539
