Hf O 
 1.0000000000000000
     5.1769419929666016    0.0000326605022979    0.0000373296335041
     0.0000324514758500    5.0711604568017039    0.0110301125754048
     0.0000383892091203    0.0106415875148352    5.0844631415512378
 Hf  O  
   4   8
Direct
 -0.0131197916950523 -0.0092522877293096  0.0140253513553831
 -0.0144648199446960  0.4894194399445714  0.5123215242557196
  0.4862983252132757 -0.0092462616943646  0.5140317090181249
  0.4876535408041365  0.4894276389518015  0.0123305508056506
  0.2806262085094130  0.2428937319903798  0.2531575039868373
  0.1925674721119910  0.2428885539745745  0.7531544764570222
  0.1886711508847750  0.7516419598048617  0.2850821896602445
  0.2845273513400077  0.7516389453603820  0.7850825078798357
  0.7808510005933385  0.2387172481892455  0.2761640105122540
  0.6923415096475223  0.2387139733504842  0.7761660882784659
  0.6887423539039337  0.7472598317895670  0.2459495997641660
  0.7844568625062301  0.7472571329101955  0.7459500994699461
