Hf O 
 1.0000000000000000
     5.2390601337432896    0.0000000000000000   -0.0000000000000050
     0.0000000000000000    5.0758502946391850    0.0000000000000000
     0.0030675196742332   -0.0051024727959153    5.0732771888811712
 Hf  O  
   4   8
Direct
 -0.0185362114061761  0.0197074969434929 -0.0033901876681335
  0.4813697553544896 -0.0396985815150819  0.4671218384828981
  0.4810889310490689  0.4601107138095450 -0.0031217902078637
 -0.0189991983229176  0.5200546962995939  0.4668714450039260
  0.2337487666848801  0.2578761295461443  0.2689263428893555
  0.7336172481114345  0.2221521200354115  0.2677741869734144
  0.3282759896918138  0.1301642507556516  0.7969596954324284
  0.8275957979932369  0.3494182763286495  0.7957388548238729
  0.2334770575777532  0.7579390903814806  0.1962144208332972
  0.7336060805974604  0.7221949511380078  0.1950760783105338
  0.3272438028515605  0.6307027956710208  0.6683273004201044
  0.8279314659309812  0.8499047213796715  0.6670976843281280
