Hf O 
 1.0000000000000000
     5.2390601337432896   -0.0000000000000000   -0.0000000000000050
     0.0000000000000000    5.0758502946391850    0.0000000000000000
     0.0005930199103444   -0.7136857497955104    5.1333834410620449
 Hf  O  
   4   8
Direct
  0.0294306833687364 -0.0280085666816006  0.0022383700394111
  0.5294396984495724  0.0472418840537936  0.4582487486939761
  0.4546825542829062  0.4721896191318293  0.0026479106164700
 -0.0453047011027953  0.5470688873035920  0.4578544840884347
  0.2368145025344761  0.2813759534900184  0.2739884202892738
  0.7473946388180908  0.2379543063503808  0.1882075244814035
  0.3101645099057998  0.1179483523245602  0.7915550733618308
  0.6772003040265678  0.4006129044345315  0.6716908116481013
  0.2474012717280403  0.7812964010194721  0.2722505502875714
  0.7368195702565048  0.7378513173804842  0.1865329132643424
  0.1772278640272086  0.6186441950382957  0.7887682632838845
  0.8101722234385167  0.9013372121994467  0.6689516657761801
