Hf O 
 1.0000000000000000
     5.2390601337432896    0.0000000000000000   -0.0000000000000050
     0.0000000000000000    5.0758502946391850    0.0000000000000000
     0.0026796968693919   -0.2333811852568094    5.0913292397569849
 Hf  O  
   4   8
Direct
 -0.0024106595328791  0.0026327319508644 -0.0134915816597056
  0.4975380275481435  0.0083248264522918  0.4720160819309830
  0.4690971344013490  0.4841902287066404 -0.0100317699933622
 -0.0309203493492711  0.5269754222667206  0.4687362445823076
  0.2403064687963128  0.2921094702109762  0.2620731463860104
  0.7395033000758007  0.2186493576501942  0.2300864599114333
  0.2840199044226084  0.1680235817152393  0.7751943704910874
  0.7562056213291773  0.3372777344761891  0.7367711917388627
  0.2393333330413812  0.7924254008693522  0.2287031224128981
  0.7400844626211225  0.7189373120885960  0.1969016237032416
  0.2559251114349572  0.6739274599792415  0.7221754752695145
  0.7838052655891271  0.8431807154946280  0.6836757672336209
