Hf O 
 1.0000000000000000
     5.2390601337432896   -0.0000000000000000   -0.0000000000000050
     0.0000000000000000    5.0758502946391850    0.0000000000000000
     0.0013446357181187   -0.4984983157400429    5.1138676629008382
 Hf  O  
   4   8
Direct
  0.0250328737342885 -0.0207953096514599 -0.0063789952926463
  0.5250281451552203  0.0308539466324164  0.4654582137942800
  0.4645469931780665  0.4779312140815156 -0.0049596984542981
 -0.0354283114275448  0.5322126215978938  0.4640478236479230
  0.2441708974422697  0.2865077855506386  0.2640668539998671
  0.7479163487529461  0.2238497807812755  0.2054588027688734
  0.2862688783884292  0.1528049302088562  0.7744000882494609
  0.7217736817784687  0.3547370589927458  0.6997635034137508
  0.2478988128135690  0.7862425853656663  0.2535334539270304
  0.7441217024928038  0.7235507695702790  0.1951193000273876
  0.2218554223509726  0.6554028028309321  0.7592106472191109
  0.7862962291215899  0.8574049643126169  0.6847449205113412
