Hf O 
 1.0000000000000000
     5.2390601337432896   -0.0000000000000000   -0.0000000000000050
     0.0000000000000000    5.0758502946391850    0.0000000000000000
     0.0019933418039019   -0.3539260666551456    5.1002293838886592
 Hf  O  
   4   8
Direct
  0.0120593560306761 -0.0096776489658621 -0.0108204947655860
  0.5120411008161708  0.0202398447447780  0.4696488870611888
  0.4669657809843195  0.4822994147285198 -0.0082933900577694
 -0.0330209740760373  0.5284035341869140  0.4671692777154932
  0.2424600081958966  0.2904847460076841  0.2624129357055973
  0.7437911467248075  0.2201678458545455  0.2185467812454640
  0.2833167684854365  0.1633364295538710  0.7737394626948205
  0.7393454327124495  0.3426726962812425  0.7184644400278255
  0.2437057367673653  0.7904781884158153  0.2402978280094054
  0.7423265182853384  0.7201195190098904  0.1966493842846131
  0.2393250603882836  0.6680487481036663  0.7404065605817816
  0.7832746649657325  0.8474408979136332  0.6852492834530565
