Hf O 
 1.0000000000000000
     5.2390601337432896    0.0000000000000000   -0.0000000000000050
     0.0000000000000000    5.0758502946391850    0.0000000000000000
     0.0001914257058491   -0.7676345091212888    5.1133559105992461
 Hf  O  
   4   8
Direct
  0.0119118313992603 -0.0137005494591756  0.0021163652725127
  0.5119183937799965  0.0679359386571456  0.4541990932384549
  0.4346153307894480  0.4863265400852940  0.0021820375016844
 -0.0653788407589364  0.5679172234948753  0.4541413440457629
  0.2148868888620737  0.2933191967161762  0.2768260259440463
  0.7316657334624832  0.2609325657795577  0.1796446045832049
  0.3210818185502789  0.1064035821236740  0.8045821558569224
  0.6257638306408873  0.4477527135635892  0.6520042492149544
  0.2316648321154880  0.7933091369868116  0.2766667725389164
  0.7148870708021097  0.7609172334200119  0.1795089200927340
  0.1257648466680736  0.6064849994769250  0.8043125441945982
  0.8210790112068617  0.9478383956643037  0.6517463611658043
