Hf O 
 1.0000000000000000
     5.2390601337432896    0.0000000000000000   -0.0000000000000050
     0.0000000000000000    5.0758502946391850    0.0000000000000000
     0.0035436603369324   -0.1072168178822410    5.0866026801739039
 Hf  O  
   4   8
Direct
 -0.0188369048067821  0.0181930054397455 -0.0128126048783909
  0.4810594427455120 -0.0079195323328504  0.4712605005140112
  0.4705883082336131  0.4824259732633677 -0.0098079775320939
 -0.0294730867922633  0.5281226125231886  0.4685156330317550
  0.2348286461889985  0.2885352945214322  0.2624015502887400
  0.7330064910752400  0.2214880602397015  0.2445371649647142
  0.2908747944671904  0.1648937862301198  0.7797629815211159
  0.7789703969606021  0.3405902806314213  0.7603573800233786
  0.2327364147770417  0.7889236047088800  0.2144171603481347
  0.7345228518121408  0.7218863589820718  0.1966718541258715
  0.2783989254362999  0.6699980909145895  0.6988422178782879
  0.7904088366585388  0.8456064482688470  0.6792331480574832
