Hf O 
 1.0000000000000000
     5.2390601337432896    0.0000000000000000   -0.0000000000000050
     0.0000000000000000    5.0758502946391850    0.0000000000000000
    -0.0000349859979871   -0.7635003760297533    5.0971071143623927
 Hf  O  
   4   8
Direct
 -0.0026940023766698  0.0010841066836168 -0.0035728174956270
  0.4973107805976559  0.0835948723506340  0.4482854675456051
  0.4195194351761123  0.5010842151693581 -0.0035773928073696
 -0.0804757412484434  0.5835975743497335  0.4482812977873769
  0.1986495797384319  0.3064698409238380  0.2723325077891596
  0.7181742531664019  0.2782113199143446  0.1723753301831812
  0.3172411516911268  0.1121044364048620  0.8041988870415783
  0.5995705775891252  0.4725816080066103  0.6405059447834178
  0.2181762667314200  0.8064691512251168  0.2723377224439746
  0.6986518618892321  0.7782117870870094  0.1723726943532884
  0.0995717175346783  0.6121050307630279  0.8042023149023702
  0.8172431195148546  0.9725790571289217  0.6405090434718899
