Ga N
 1.0000000000000000
     4.0581699553951545    0.0000000000000000    0.0000000000000000
     0.0000000000000000    4.0581699553951545    0.0000000000000000
     0.0000000000000000    0.0000000000000000    4.0581699553951545
 Ga  N
   4   4
Direct
  0.0000000000000000  0.0000000000000000  0.0000000000000000
  0.0000000000000000  0.5000000000000000  0.5000000000000000
  0.5000000000000000  0.0000000000000000  0.5000000000000000
  0.5000000000000000  0.5000000000000000  0.0000000000000000
  0.5000000000000000  0.5000000000000000  0.5000000000000000
  0.5000000000000000  1.0000000000000000  1.0000000000000000
  1.0000000000000000  0.5000000000000000  1.0000000000000000
  1.0000000000000000  1.0000000000000000  0.5000000000000000
