Hf O 
 1.0000000000000000
     5.2390601337432896    0.0000000000000000   -0.0000000000000050
     0.0000000000000000    5.0758502946391850    0.0000000000000000
    -0.0000086890724085    0.0000022175514284    5.0744296329830130
 Hf  O  
   4   8
Direct
  0.0158122336905796  0.0462385533338757 -0.0071183818238725
  0.5158115906967604 -0.0143760010499503  0.5226958359330071
  0.5158121501950934  0.4856238161313173 -0.0071179291577422
  0.0158116864409298  0.5462383330642359  0.5226958908573545
  0.1680240511664133  0.3766259496565030  0.1932079211429149
  0.6680267063536729  0.1552408679593995  0.1932126340644247
  0.2646320847239192  0.2466508052778507  0.7223960282123982
  0.7646318029112563  0.2852155822251610  0.7224000034563642
  0.1680233216967885  0.8766262968888429  0.3223715049654284
  0.6680255846935921  0.6552404251117896  0.3223674972480075
  0.2646303685880303  0.7466505767005253  0.7931834877533388
  0.7646301120604242  0.7852157575710507  0.7931801484274507
