Hf O 
 1.0000000000000000
     5.2390601337432896   -0.0000000000000000   -0.0000000000000050
     0.0000000000000000    5.0758502946391850    0.0000000000000000
    -0.0000382748722958    0.0000023232248716    5.1601831229814241
 Hf  O  
   4   8
Direct
 -0.0071903016140435  0.0350731737886313  0.0032413698383078
  0.4928051754652965 -0.0446722459969072  0.4920544929471511
  0.4928074303901395  0.4553254564868678  0.0032451367076080
 -0.0071924594868610  0.5350710519627294  0.4920584535519869
  0.2073171515655536  0.3116676197405728  0.2433057302346130
  0.7073151236890460  0.1787202816552541  0.2432981217977033
  0.3154185364862115  0.1447261114723500  0.7883261177002024
  0.8154184278297432  0.3456734359326029  0.7883276111344909
  0.2073005750158120  0.8116698200685503  0.2520017479414323
  0.7072985706940522  0.6787182327928462  0.2520091244354501
  0.3154161948916215  0.6447276986634788  0.7069747014424141
  0.8154160060435582  0.8456717427032375  0.7069732180686643
