Hf O 
 1.0000000000000000
     5.2390601337432896   -0.0000000000000000   -0.0000000000000050
     0.0000000000000000    5.0758502946391850    0.0000000000000000
    -0.0000018857824816    0.0000043262570471    5.2068817471375928
 Hf  O  
   4   8
Direct
  0.0000554986734370  0.0471411646061254 -0.0000304760395759
  0.5000548622866957 -0.0471636552868333  0.5000096528354586
  0.5000543332955506  0.4528362773371502 -0.0000282235378736
  0.0000558403114256  0.5471411749344419  0.5000113904122501
  0.1886510813267952  0.3439113499803306  0.2218232910169193
  0.6886507172381549  0.1560629649187465  0.2218205565057517
  0.3113303687122350  0.1561996416767268  0.7780267741759743
  0.8113311372334263  0.3437815122661281  0.7780299513142520
  0.1886511176399931  0.8439113883996223  0.2781577942766740
  0.6886506983775581  0.6560630609321016  0.2781604074349596
  0.3113306648752356  0.6561998781027959  0.7219542655296417
  0.8113309493076852  0.8437808764703555  0.7219516990324657
