Hf O 
 1.0000000000000000
     5.2390601337432896   -0.0000000000000000   -0.0000000000000050
     0.0000000000000000    5.0758502946391850    0.0000000000000000
    -0.0000382567115635    0.0000023636021297    5.1598107493390808
 Hf  O  
   4   8
Direct
  0.0073311641486029  0.0446287733649745 -0.0033139720778239
  0.5073312623450698 -0.0350422630148796  0.5079990446896125
  0.5073288861306671  0.4649554989521107 -0.0033101744934007
  0.0073336327223564  0.5446263662629560  0.5080029903564518
  0.1845480081317610  0.3553961327164381  0.2115108651320605
  0.6845482754810235  0.1541874161066624  0.2115096714740723
  0.2926044958288421  0.1885622737010422  0.7564721555032071
  0.7926066858781835  0.3210329387156047  0.7564800172153915
  0.1845508928135479  0.8553944083887759  0.2931767281554453
  0.6845511008679562  0.6541892250928142  0.2931780203016620
  0.2926219065081653  0.6885600013169405  0.7482086714350359
  0.7926240073038751  0.8210350320534198  0.7482010602315580
