Hf O 
 1.0000000000000000
     5.2390601337432896   -0.0000000000000000   -0.0000000000000050
     0.0000000000000000    5.0758502946391850    0.0000000000000000
    -0.0000227947935685    0.0000015209745846    5.1094246118259266
 Hf  O  
   4   8
Direct
 -0.0161423003102587  0.0253938794782753  0.0073454135355881
  0.4838577024225836 -0.0398722455399500  0.4855706188281363
  0.4838562816889692  0.4601259688654442  0.0073483464288907
 -0.0161406144213031  0.5253922674261248  0.4855734985777948
  0.2219978936978813  0.2841352327036372  0.2641109817863272
  0.7219965838809604  0.2013791917421322  0.2641046936723038
  0.3175659834345225  0.1384299633761060  0.7982560147061766
  0.8175654463115539  0.3470921274770192  0.7982556658966448
  0.2219921081288004  0.7841357017557665  0.2288112047696606
  0.7219908379972617  0.7013788104857462  0.2288172049119309
  0.3175679266416164  0.6384312018593985  0.6946632839889213
  0.8175674590504565  0.8470908925812312  0.6946633349139563
