Hf O 
 1.0000000000000000
     5.2390601337432896    0.0000000000000000   -0.0000000000000050
     0.0000000000000000    5.0758502946391850    0.0000000000000000
    -0.0000091573925779    0.0000022365394126    5.0747755502992495
 Hf  O  
   4   8
Direct
 -0.0158112624485352  0.0144109321784681  0.0071054329024115
  0.4841891500517868 -0.0461617209567131  0.4773710945490927
  0.4841886006042735  0.4538380727935119  0.0071059676986422
 -0.0158107004280297  0.5144107341165373  0.4773712703669384
  0.2352841701106153  0.2537283272322753  0.2774329573892454
  0.7352843596095302  0.2145168033455968  0.2774289070495567
  0.3318782127722923  0.1234734269937271  0.8067005521133632
  0.8318756644559769  0.3447715955917900  0.8066960161742617
  0.2352861160518194  0.7537285096690108  0.2070419325809563
  0.7352862832246051  0.7145166614789827  0.2070456440127359
  0.3318791187475781  0.6234729902593807  0.6777745107531863
  0.8318769281142213  0.8447720677976859  0.6777784854163925
