Hf O 
 1.0000000000000000
     5.2390601337432896   -0.0000000000000000   -0.0000000000000050
     0.0000000000000000    5.0758502946391850    0.0000000000000000
    -0.0000245891493526    0.0000015272733322    5.1088457253119186
 Hf  O  
   4   8
Direct
  0.0162703654131193  0.0398299206831814 -0.0074119406218953
  0.5162675305739728 -0.0253410614779544  0.5144936659510461
  0.5162689375027689  0.4746572396409037 -0.0074090072459253
  0.0162691794753967  0.5398280661933036  0.5144965347748698
  0.1823985313073964  0.3616617595829943  0.2015964629896267
  0.6823991477202582  0.1528232823712888  0.2015970119813989
  0.2778989509821528  0.2161770742050852  0.7356430617667430
  0.7779002216865190  0.2983154732316689  0.7356493803735250
  0.1823969396677158  0.8616603781479898  0.3054876274010969
  0.6823974966371477  0.6528246958045822  0.3054873417140553
  0.2779053325097638  0.7161766246836507  0.7714380462694020
  0.7779066067123624  0.7983157213011707  0.7714319915880520
