Hf O 
 1.0000000000000000
     5.2390601337432896    0.0000000000000000   -0.0000000000000050
     0.0000000000000000    5.0758502946391850    0.0000000000000000
    -0.0000025044725493    0.0000009316233220    5.0656582329545499
 Hf  O  
   4   8
Direct
 -0.0000208844534161  0.0012870971821163  0.9999591284590257
  0.4999802503338599  0.0637229638709407  0.5318262107334907
  0.4999797756975040  0.5637228807261164 -0.0000413822892605
  0.9999796708405193  0.5012867153427135  0.5318253317401594
  0.1456974156263646  0.1675772605236676  0.3351521621406355
  0.6456965644113456  0.3974383459484126  0.3351550086242809
  0.2491836054072386  0.2964074160061201  0.8047150719337318
  0.7491838409926003  0.2686075816210968  0.8047144799560446
  0.1456978704158756  0.6675767729986427  0.1966339200140818
  0.6456969595776617  0.8974387566642530  0.1966308183188866
  0.2491836108967674  0.7964075681736419  0.7270712846194224
  0.7491838316571274  0.7686079145029941  0.7270713612104878
