Hf O 
 1.0000000000000000
     5.2636872185487853    0.0000014975394148    0.0000927689617519
     0.0000000311061978    5.0789339457310394    0.0265037094087836
     0.0001002919652308    0.0263138159161662    5.0877792189179107
 Hf  O  
   4   8
Direct
  0.0011140976154100 -0.0055899836033680 -0.0015570145783772
 -0.0277939154925730  0.4843122816899118  0.4965948107087703
  0.4748968259928256 -0.0055710422890449  0.4984319070718453
  0.5037841654082639  0.4843311933518978 -0.0033973286352890
  0.2866734898828716  0.2608221297656318  0.2563664089260523
  0.1892989696935199  0.2608264403662788  0.7563672644025905
  0.1625360844878939  0.7737320307989313  0.2976086049755903
  0.3134798495381202  0.7737489434551182  0.7976132145935981
  0.7858659208759996  0.2311116596523456  0.2464162490775807
  0.6901032178895341  0.2311233312429252  0.7464142179681499
  0.6648284043274229  0.7203796164150238  0.2822241404951296
  0.8111908883751288  0.7203770815132973  0.7822275626968254
