Hf O 
 1.0000000000000000
     5.1905197208747103    0.0000323443819111    0.0000447464784269
     0.0000320448704423    5.0719295945141392    0.0123124109262964
     0.0000464970794432    0.0119693739704365    5.0984420513329765
 Hf  O  
   4   8
Direct
 -0.0132127522868135 -0.0097780380247712  0.0153639399037427
 -0.0143739309271022  0.4891632764461097  0.5122416892495646
  0.4866982252909599 -0.0097723402116231  0.5153714310389108
  0.4878611195388600  0.4891730795568988  0.0122532136121171
  0.2798832689559063  0.2449926811725537  0.2537791853001528
  0.1935986132201463  0.2449860255009156  0.7537772000522023
  0.1892439497293222  0.7503891567120713  0.2832482696466508
  0.2842474217205176  0.7503855973839624  0.7832490865389600
  0.7804999612426529  0.2401507801174749  0.2753729638147461
  0.6929815439598893  0.2401467789211212  0.7753745547971566
  0.6904488784585667  0.7461961217939344  0.2457386698348161
  0.7830436485104179  0.7461915578101779  0.7457384328436790
