Hf O 
 1.0000000000000000
     5.1006678031808246   -0.0000140693507256    0.0000388159499923
    -0.0000145113024760    5.0757025729247642    0.0513561817363099
     0.0000410419986936    0.0547667509436357    5.1975442511197318
 Hf  O  
   4   8
Direct
 -0.0119390394506578 -0.0131017738800614  0.0231283913345775
 -0.0236641293928481  0.4834358014724454  0.5092833009965361
  0.4802032183745395 -0.0131109654762950  0.5231324410715048
  0.4919291434546098  0.4834432603562144  0.0092846009662779
  0.2393273176549213  0.2512671419565988  0.2212768242608095
  0.2289115423103110  0.2512413965956499  0.7212788890969858
  0.2069213625380091  0.7584609358001257  0.3223401990526145
  0.2613216987919263  0.7584384842451301  0.8223378951998890
  0.7423072441567240  0.2342409198313768  0.3052861197658545
  0.7259349350270778  0.2342229964055605  0.8052864131657476
  0.7142701986657181  0.7391717667816736  0.2213756586363785
  0.7539736153223742  0.7391518722948960  0.7213757422792816
