Hf O 
 1.0000000000000000
     5.2810203619359433   -0.0000015949855283   -0.0000424614200184
    -0.0000019280623619    5.0705220366456807    0.0114008320310878
    -0.0000484069045318    0.0103181888342456    5.0929877062141511
 Hf  O  
   4   8
Direct
  0.0130596726413593  0.0026911422922503 -0.0112870308442913
 -0.0379966522945753  0.4815988149118353  0.4876247992775669
  0.4628126861424471  0.0026865402486970  0.4887191937630357
  0.5138723110369010  0.4815950055146490 -0.0123812577431070
  0.2754822671666543  0.2693792004184420  0.2417329188180446
  0.2004027286143917  0.2693861318443451  0.7417338766975067
  0.1427964573724426  0.7915648833902551  0.3147075413797647
  0.3330435334632232  0.7915593688933243  0.8147045452310516
  0.7751521510845985  0.2205107594245347  0.2365421083863622
  0.7007326566887880  0.2205030975578684  0.7365431721457242
  0.6440030513077474  0.6988622742405433  0.3087398010845369
  0.8318359945860981  0.6988675742585853  0.8087367115253279
