Hf O 
 1.0000000000000000
     5.2703587272137566    0.0000007050687199    0.0000144867528586
     0.0000006168828494    5.0540264624333648    0.0009861917486170
     0.0000147910668318    0.0000920025087784    5.0838971050854704
 Hf  O  
   4   8
Direct
  0.0153219472702965  0.0069755769123696 -0.0156004655459876
 -0.0482396401538794  0.4766967966971291  0.4843040678932740
  0.4517862373394994  0.0069789732414036  0.4843982275405216
  0.5153479559767599  0.4766999003303157 -0.0156946121804363
  0.2569846543150133  0.2765349757258430  0.2332913472158970
  0.2101027019253995  0.2765312420263725  0.7332917749189560
  0.1214316622074790  0.8067447464214560  0.3359503262837040
  0.3456543684865614  0.8067352807217620  0.8359448105168601
  0.7569555537903428  0.2074752887166067  0.2329068509353776
  0.7101318803983292  0.2074786569236659  0.7329072033530138
  0.6215346955856921  0.6773060901020517  0.3355835147563033
  0.8455516236263724  0.6773144894062796  0.8355785937463339
