Hf O 
 1.0000000000000000
     5.1408061734108292    0.0000086832925270    0.0000410263590935
     0.0000083166850170    5.0729048626702475    0.0312709151375081
     0.0000429677658937    0.0327413988113225    5.1427350395194615
 Hf  O  
   4   8
Direct
 -0.0125943686779827 -0.0112840191290325  0.0190882444071256
 -0.0190473311532583  0.4862775747349424  0.5107395823963317
  0.4834728631269247 -0.0112860185747204  0.5190936987634965
  0.4899258583336933  0.4862862430797952  0.0107460847511552
  0.2597788557182362  0.2473884194180126  0.2373966189403474
  0.2110788292256750  0.2473723329681566  0.7373967406459768
  0.1982151183028298  0.7549735086035466  0.3030139178240814
  0.2726508428095579  0.7549603348420620  0.8030130460628047
  0.7616017419054152  0.2366705263351253  0.2905112418766589
  0.7092574083046248  0.2366593541713796  0.7905122194143746
  0.7020902172846104  0.7432677661163570  0.2334696713724014
  0.7687754329276693  0.7432557384904607  0.7334697881178454
