Hf O 
 1.0000000000000000
     5.2337129093797952    0.0000350227731526    0.0000489560036601
     0.0000342680577431    5.0754492097410013   -0.0020355769271572
     0.0000507782125272   -0.0037674261851285    5.0766003002830873
 Hf  O  
   4   8
Direct
 -0.0084734590375537 -0.0041613891495580  0.0132634004754633
 -0.0058791343281742  0.4918731641116346  0.5133306215135580
  0.4894496697910263 -0.0041501845868459  0.5132555745626591
  0.4868194684230818  0.4918831063158524  0.0133549636800896
  0.2935581267101355  0.2447957931864729  0.2650286520252226
  0.1821060810700899  0.2447924338680645  0.7650401288993873
  0.1832266732458819  0.7460841007258788  0.2686777258530433
  0.2924489034354293  0.7460688561801483  0.7686832627361611
  0.7937971767944085  0.2439354932421879  0.2648112555691814
  0.6818575819224257  0.2439295697781329  0.7648033133686335
  0.6828768474556977  0.7473441082811556  0.2541246146599172
  0.7927910872105624  0.7473209834464551  0.7541246041378535
