Hf O 
 1.0000000000000000
     5.0801617416973830   -0.0001151171357721    0.0000427453440058
    -0.0001156370528075    5.0816831846268711    0.0675732511717801
     0.0000464435559503    0.0725379577974443    5.2443752327580295
 Hf  O  
   4   8
Direct
 -0.0065180056419705 -0.0096332832785536  0.0264897882821082
 -0.0220499618275656  0.4818104527727733  0.5081863301333513
  0.4783153816716896 -0.0096726785123298  0.5264993116830345
  0.4938115717733575  0.4818362445546183  0.0082043922961919
  0.2249151614367527  0.2557303733185705  0.2103343011982819
  0.2414891890905729  0.2555148713388003  0.7103708193450793
  0.2123426494470242  0.7602420390529847  0.3359466180447843
  0.2540622877128281  0.7600271526621056  0.8359089455531350
  0.7286108301852807  0.2334798794468207  0.3153264968355373
  0.7377852806076735  0.2332901177420350  0.8153010798059852
  0.7229739198555597  0.7351060709237958  0.2129053064071005
  0.7433959355043205  0.7349214510077537  0.7128940840490999
