Hf O 
 1.0000000000000000
     5.3587325573663041   -0.3306521378124648   -0.0320539643276238
    -0.5059746115691801    5.1291038667191460   -0.0022167796139672
     0.0332207948786796    0.0054612178255910    5.1317413168500376
 Hf  O  
   4   8
Direct
 -0.0075847866142379  0.0016959094033834  0.0065372162164812
  0.0693373749246414  0.4582841202280258  0.5064429930937402
  0.4924638814625834  0.0018774575933182  0.4273684605522403
  0.5692572644314164  0.4583380051509586 -0.0727242727093673
  0.3107352206029591  0.2751983087274561  0.2134584026209047
  0.2510518276893331  0.1857987088043707  0.7200428686892392
  0.1549575481025871  0.7841755702922787  0.2682039164281048
  0.4062192189832138  0.6776522256002780  0.6679280724181751
  0.8107032002730622  0.2742626325986904  0.2200559397942990
  0.7510144040545073  0.1848901725298163  0.7134565636103587
  0.6554512516048689  0.7823540165733892  0.1679997037432561
  0.9068015775133755  0.6759410164988778  0.7682011565959193
