Hf O 
 1.0000000000000000
     5.3590143055760846   -0.2483120322157169   -0.0542409871894705
    -0.4829423919444726    5.1164858667193380    0.0138348322955928
     0.0557492608192215   -0.0089775985157421    5.1171971556098876
 Hf  O  
   4   8
Direct
 -0.0175046293134288  0.0008453513895773  0.0174717980683805
  0.0501876576089453  0.4625936162406474  0.5173437620083818
  0.4810727777842660  0.0005378070617963  0.4458170851437165
  0.5514929168573159  0.4634849156742704 -0.0543741353727976
  0.3001514017073377  0.2740070160908159  0.2288738285431673
  0.2326505006259666  0.1957735546962132  0.7331975629375709
  0.1501741497202594  0.7834668321649622  0.2781377292780757
  0.3793454250798052  0.6911959239500787  0.7001470302486462
  0.8001826114871973  0.2681769688723565  0.2328571457203122
  0.7326277850707752  0.1899126871758964  0.7285026896039823
  0.6529950458722471  0.7726834450407357  0.1999994682923775
  0.8823139174187168  0.6804644892563486  0.7779177401057813
