Hf O 
 1.0000000000000000
     5.3158164180921164    0.0502484167861776   -0.0783942388078289
    -0.2678994254190128    5.0774099349501247    0.0275908806570131
     0.0743640401830082   -0.0227576339904016    5.0912238259439082
 Hf  O  
   4   8
Direct
  0.0071127607016405 -0.0067592674463949 -0.0060837259575143
 -0.0020235277355556  0.4665866525738280  0.4938213922488989
  0.4722201079183944 -0.0096861565601985  0.4713283371463926
  0.5331220714508301  0.4693435435765603 -0.0285328305598310
  0.2894906415003373  0.2651054441209939  0.2330388891749557
  0.2139213545823427  0.2310410992641204  0.7321220316142997
  0.1484719356253715  0.7850174826169628  0.3003126681430868
  0.3498091133161570  0.7468179290295096  0.7752309041060579
  0.7910218213847863  0.2281334039189579  0.2325345545564221
  0.7154561638715360  0.1945659750766369  0.7333545603699499
  0.6559471392575889  0.7124809406163538  0.2756346914985819
  0.8572673010796847  0.6744199766834595  0.8006893032319766
