Hf O 
 1.0000000000000000
     5.2696777949897164    0.1814108976438204   -0.1029660604555192
    -0.1721954367508791    5.0534441305987805    0.0467871080980783
     0.0982325579608185   -0.0439408925417090    5.0850482180285184
 Hf  O  
   4   8
Direct
  0.0069512187577872 -0.0014902299502239 -0.0040426858129017
 -0.0547076002614455  0.4699359540890271  0.4960456001219710
  0.4445338671219857 -0.0011402361022832  0.4959868175666409
  0.5077060968633241  0.4692444927258930 -0.0041145860609615
  0.2518498924016647  0.2680354062746080  0.2450500994815336
  0.2004516716390653  0.2663094056800803  0.7448997761822749
  0.1156678543170798  0.7973867499838885  0.3441119090811036
  0.3353725520517712  0.7953063037241521  0.8430742941398580
  0.7520353216741712  0.2021787857796102  0.2447818928242309
  0.7006302756104315  0.2000531121822476  0.7449714140330813
  0.6165681680407916  0.6729191100158638  0.3430996104830623
  0.8362260912973384  0.6709420680680553  0.8441105981699681
