Hf O 
 1.0000000000000000
     5.2818284461877942    0.1585459180557317   -0.1034029183229401
    -0.1865126114137206    5.0641980401156044    0.0427559970469514
     0.0970257306722003   -0.0406119484054764    5.0889959191674059
 Hf  O  
   4   8
Direct
  0.0168567470254213 -0.0056478332461353 -0.0128074665695340
 -0.0313310099661211  0.4699907533988134  0.4873850388631455
  0.4621280455026566 -0.0056040945115635  0.4838287779658960
  0.5233302914770582  0.4692428279272554 -0.0161980964860959
  0.2753632080808655  0.2648910567247009  0.2360384005621564
  0.2095038043349834  0.2528733026997667  0.7348999423186410
  0.1379272246189968  0.7901154437649767  0.3202367598319832
  0.3428694935483085  0.7776057295234826  0.8135469315160537
  0.7762087445688225  0.2108656819346895  0.2351758357863719
  0.7102996612921757  0.1986907911696591  0.7363340849990493
  0.6424323276656009  0.6859178084985141  0.3139488799661659
  0.8475013256931980  0.6735786607006882  0.8206246169511803
