Hf O 
 1.0000000000000000
     5.3452628588493951   -0.1003560399102543   -0.0684908861554115
    -0.3952219184207709    5.0945178404185638    0.0246088853595112
     0.0689842892320644   -0.0183782871605100    5.1026101604796059
 Hf  O  
   4   8
Direct
 -0.0123895569566851 -0.0035507145915280  0.0132094031912736
  0.0253640182225719  0.4638427689299711  0.5129791088319666
  0.4746312292030161 -0.0062560930313732  0.4624419911875726
  0.5384176292367389  0.4673932374704302 -0.0376430543231810
  0.2931785961630828  0.2689334456681538  0.2358360937345002
  0.2189444202298391  0.2117319052974728  0.7378845721487304
  0.1481769968625263  0.7833410478525321  0.2910203197363982
  0.3590190666157983  0.7151330831934229  0.7393183555384122
  0.7940897104262398  0.2493110313682686  0.2376979121406864
  0.7198584162978894  0.1921170888506070  0.7355916676383443
  0.6544147847486712  0.7462959439238249  0.2388803872866717
  0.8652085125537495  0.6775252105001370  0.7908011802194680
