Hf O 
 1.0000000000000000
     5.3488682705671371   -0.2058969223191328   -0.0046475947129652
    -0.6498886532683728    5.1115015324113564   -0.0086699723197386
     0.0050455264085845    0.0094986566186365    5.1577068218304145
 Hf  O  
   4   8
Direct
 -0.0017727245816527 -0.0019719395271076  0.0028302254472739
  0.0796254342685243  0.4505883886751357  0.5028445082298896
  0.4983007353817318 -0.0017856347733698  0.4211647075350919
  0.5795480019084543  0.4504977730801082 -0.0788236939033592
  0.3148098956252791  0.2726276403157123  0.2067725465118119
  0.2630231030669398  0.1761144447896697  0.7171054311231919
  0.1503139949722452  0.7854249772195452  0.2766673805720556
  0.4275271473473795  0.6635348079357458  0.6477204327269520
  0.8148253373765113  0.2724677991820137  0.2172206626070815
  0.7630312447222493  0.1759343691049844  0.7068587157772300
  0.6503835924593250  0.7850734569473964  0.1477864334141186
  0.9276303756164617  0.6631666159876296  0.7767247495702883
