Hf O 
 1.0000000000000000
     5.2690393730210117    0.1808330664813156   -0.1017937994007750
    -0.1721580994542419    5.0515937160224418    0.0466559062948766
     0.0992996390352412   -0.0435623725835050    5.0838544713407909
 Hf  O  
   4   8
Direct
  0.0086279352534769 -0.0011558990614261 -0.0055843475288269
 -0.0543830732984775  0.4692167902846798  0.4944400051130383
  0.4454647928158328 -0.0011101370042659  0.4944225707790865
  0.5087799436638112  0.4690786090174573 -0.0055861395996122
  0.2518005461889805  0.2679213132021956  0.2431450544732070
  0.2024466887622728  0.2675762733177507  0.7431357886904744
  0.1159807857019572  0.7977167848360522  0.3441885947850169
  0.3380602376062358  0.7972947013733565  0.8439722767058956
  0.7518430062230145  0.2004582573271695  0.2431690617966233
  0.7024878164922947  0.2000566896557347  0.7431811324468736
  0.6161439691138580  0.6706890832255522  0.3439943555252668
  0.8382535817184125  0.6702896512069166  0.8442139773302269
