Hf O 
 1.0000000000000000
     5.3095029518277217    0.0659369044030869   -0.0741078711227920
    -0.2484857502348072    5.0767744028111110    0.0244823213524371
     0.0712531789793991   -0.0206300154124584    5.0895384354163014
 Hf  O  
   4   8
Direct
  0.0103253688278388 -0.0088908606621736 -0.0094108420030400
 -0.0021187613011544  0.4681772124741939  0.4905313122161721
  0.4749776575168210 -0.0104762440308272  0.4715250011057102
  0.5333285799187248  0.4697078157358479 -0.0283753402468713
  0.2933804660736993  0.2630354399286550  0.2324524480319787
  0.2133050976191897  0.2318286312989696  0.7307445168348482
  0.1548571483496640  0.7816591441149304  0.2955038613165683
  0.3466175444073969  0.7473370654767593  0.7747308123529326
  0.7947872318417157  0.2269843580037505  0.2310562821113881
  0.7147016694566121  0.1961026353545855  0.7326945909658891
  0.6619209535091696  0.7115493323206851  0.2750465384998285
  0.8537709123887867  0.6773714631443164  0.7957447759657613
