Hf O 
 1.0000000000000000
     5.3631805295456783   -0.2531091617256966   -0.0612116477597359
    -0.5042884409004261    5.1181228877082106    0.0173533528251377
     0.0571209400472348   -0.0117642591914857    5.1187026877078141
 Hf  O  
   4   8
Direct
 -0.0218912478592314  0.0010526839021991  0.0230510758751161
  0.0487466441987455  0.4619533500859286  0.5230930456794320
  0.4775880025815645  0.0007931168692065  0.4494400856302886
  0.5492843911224252  0.4620950497072591 -0.0505500945037809
  0.2972083959336465  0.2742303312056049  0.2338878758660976
  0.2297865206318703  0.1922871233181381  0.7382609807651507
  0.1460874393332560  0.7825611932231551  0.2816432321586457
  0.3790904788195376  0.6865739052002542  0.6993219857446556
  0.7971449090889875  0.2707247401775551  0.2381832402125622
  0.7297440554514701  0.1887791975222153  0.7338175851387513
  0.6477112343489393  0.7764289617371971  0.1992565991393151
  0.8806584798867066  0.6804609643863819  0.7815648998997027
