Hf O 
 1.0000000000000000
     5.3439546087844114   -0.0938941429413117   -0.0741613581852949
    -0.3973829846128208    5.0948289203105972    0.0263399866076658
     0.0704925097499227   -0.0206356749385053    5.0992961254221170
 Hf  O  
   4   8
Direct
 -0.0146754786243622 -0.0047178791468197  0.0160233898653484
  0.0243469685895587  0.4650667411879334  0.5159936300034342
  0.4739125759244080 -0.0070006933443439  0.4655186711508937
  0.5357878817558238  0.4673871139007039 -0.0344463662100111
  0.2933744506985267  0.2674189443809186  0.2394412159649690
  0.2154928424449551  0.2104326768696510  0.7406863733956719
  0.1502150199239375  0.7801751135297021  0.2891789337930536
  0.3539882424359085  0.7127148024040163  0.7401939732744860
  0.7941035180245225  0.2498014716004563  0.2407787849333264
  0.7162230969110409  0.1929394312117136  0.7395133119302044
  0.6557928950689645  0.7475226101543595  0.2403007494489892
  0.8595810249663023  0.6801201070377593  0.7892827372122166
