Hf O 
 1.0000000000000000
     5.3578871725587192   -0.3319530323963648   -0.0356236864446822
    -0.5128377642107150    5.1281658805694157   -0.0006888758000153
     0.0342080603713606    0.0039816532462442    5.1371877299261257
 Hf  O  
   4   8
Direct
 -0.0097151666633807  0.0025398936131362  0.0087684322465695
  0.0685549819552058  0.4579123038433466  0.5087853857464950
  0.4903417295672407  0.0025615074734773  0.4288867992198500
  0.5684966066781748  0.4578599558227497 -0.0711153666334894
  0.3086396666217155  0.2763255156970608  0.2152125563823852
  0.2502722886247323  0.1843522934032867  0.7225757983980713
  0.1504949020114621  0.7857437911000581  0.2726766448007623
  0.4082639883251970  0.6749908094418393  0.6653046927355951
  0.8086085939495907  0.2761332838607387  0.2225616579596113
  0.7502402174986131  0.1841295378606526  0.7152053849730602
  0.6505366469794279  0.7855040043976150  0.1652489592045378
  0.9082753493906643  0.6747405398120649  0.7726096686875453
