Hf O 
 1.0000000000000000
     5.3469085496779902   -0.2129982357036507   -0.0062350114193631
    -0.6410151197551632    5.1108711055857139   -0.0082590102967080
     0.0067317479585142    0.0092984243978834    5.1607254154562563
 Hf  O  
   4   8
Direct
 -0.0023071024870818 -0.0014068543613763  0.0033062694208422
  0.0792330908102995  0.4506825806753651  0.5032864787672867
  0.4976777822350008 -0.0014340664306762  0.4215438630264116
  0.5792552486136323  0.4507107311742728 -0.0784808361868776
  0.3142343277852371  0.2732497208145461  0.2070781186711481
  0.2626972864077794  0.1759657449716480  0.7178057062311112
  0.1486277451149169  0.7863692052427586  0.2783151122484104
  0.4283868469552038  0.6627008336625477  0.6462374019046861
  0.8142234855210150  0.2733266279499702  0.2178214818303553
  0.7626823367822453  0.1760586343168358  0.7070964796240913
  0.6485309017815697  0.7865754008081859  0.1462148323582579
  0.9283058931930002  0.6629248136428084  0.7782976295057714
