Hf O 
 1.0000000000000000
     5.2806877478067422    0.1641732699913322   -0.0956329995959088
    -0.1750838683930184    5.0624276678418498    0.0386105305697598
     0.0925282862286979   -0.0358973094549105    5.0895178070108171
 Hf  O  
   4   8
Direct
  0.0214090705948306 -0.0063124779735000 -0.0170866625305038
 -0.0310111951019385  0.4691868387577157  0.4829559030798163
  0.4649508537818929 -0.0058723917119213  0.4811309506413075
  0.5254260371687302  0.4686354454802161 -0.0188408997987494
  0.2775051108037641  0.2629843420089515  0.2320971360089595
  0.2123145216825987  0.2551799539078271  0.7312688520538987
  0.1412269416258136  0.7884816852175612  0.3177415979837728
  0.3462126083041846  0.7805918888352289  0.8137396203415168
  0.7780975565942954  0.2074329429152253  0.2314603077576668
  0.7128815389116555  0.1997130498123126  0.7322669045945623
  0.6441608572775055  0.6820341547883210  0.3138930855600416
  0.8492431356124063  0.6741733597537674  0.8179130011234743
