Ga N
 1.0000000000000000
     4.2846895618264451    0.0000000000000000    0.0000000000000000
    -0.0000000000000000    4.2846895618264451    0.0000000000000000
     0.0000000000000000    0.0000000000000000    4.2846895618264451
 Ga  N
   4   4
Selective dynamics
Direct
  0.0000000000000000  0.0000000000000000  0.0000000000000000   T   T   T
  0.0000000000000000  0.5000000000000000  0.5000000000000000   T   T   T
  0.5000000000000000  0.0000000000000000  0.5000000000000000   T   T   T
  0.5000000000000000  0.5000000000000000  0.0000000000000000   T   T   T
  0.2500000000000000  0.2499999999999999  0.2499999999999999   T   T   T
  0.2500000000000000  0.7500000000000000  0.7500000000000000   T   T   T
  0.7500000000000000  0.2499999999999999  0.7500000000000000   T   T   T
  0.7500000000000000  0.7500000000000000  0.2499999999999999   T   T   T
