Hf O 
 1.0000000000000000
     5.3548460486194571   -0.2531731781911421   -0.0315429884293493
    -0.4479126548083162    5.1139198727007376    0.0120321925237429
     0.0634637814598236    0.0010548240056071    5.1138030775879093
 Hf  O  
   4   8
Direct
 -0.0047067279085524  0.0000513559853426  0.0043957632705539
  0.0487555789990397  0.4600157864075817  0.5020559225351350
  0.4875570873015052 -0.0004621254426144  0.4368337690655240
  0.5570190296492262  0.4682085836570666 -0.0639449598040866
  0.3036543492519749  0.2730486714983710  0.2151717961918449
  0.2386271965939636  0.2062026797095600  0.7194148046179569
  0.1559709352643102  0.7860276071451860  0.2744970323451669
  0.3856038057155388  0.7086383677220499  0.7075934194769635
  0.8048449103988210  0.2596604316472165  0.2175733254797893
  0.7391967177786538  0.1946821674464425  0.7129877042452271
  0.6621463880297516  0.7596460767684791  0.2055869512474939
  0.8914364538688603  0.6797059273593075  0.7727141754940432
