Hf O 
 1.0000000000000000
     5.3558076350970234   -0.3395586712127691   -0.0218344880989841
    -0.5046699475193268    5.1309378210072341   -0.0030206034569802
     0.0316896540866970    0.0115457094165249    5.1268269872017846
 Hf  O  
   4   8
Direct
 -0.0018078950468218 -0.0004992900291950  0.0017433828466684
  0.0698825260792222  0.4569596777981630  0.5007221270447313
  0.4968752128501193  0.0000718201627697  0.4222678867251290
  0.5714999419337098  0.4596075108149912 -0.0779192103474027
  0.3131073521024404  0.2727095627680992  0.2067383645439498
  0.2535252638252021  0.1907199095745910  0.7126980927496980
  0.1611215985064186  0.7827701380635212  0.2643031953698190
  0.4053966075850829  0.6869148141037983  0.6752587456469883
  0.8135180975072539  0.2672367636203959  0.2122016597973201
  0.7536897420364845  0.1868263075853119  0.7060880693139587
  0.6646992133715725  0.7717646148052517  0.1757091692921765
  0.9093823552309463  0.6755825415318775  0.7643451735380346
