Hf O 
 1.0000000000000000
     5.2701340150124159    0.1790500431963671   -0.1036282477393382
    -0.1746815941984476    5.0579193768266091    0.0449567123196382
     0.0946743850039440   -0.0450411251012423    5.0854662034174973
 Hf  O  
   4   8
Direct
  0.0015708290972477 -0.0002362579539010 -0.0007647619919106
 -0.0539457854186477  0.4704231928551402  0.4999612009161676
  0.4409295151310933 -0.0030823735259965  0.4989131366641404
  0.5060240851769098  0.4684878877888210 -0.0019712225096563
  0.2506180108729226  0.2709343585969389  0.2498069962924050
  0.1971671936353622  0.2631193166189309  0.7493277652493061
  0.1113113816990219  0.8000114493287462  0.3454745024838134
  0.3302982343374332  0.7898751973663360  0.8397553969732570
  0.7512120107261426  0.2075060677387303  0.2488532029068287
  0.6978323555561925  0.1973803304265273  0.7492180284177558
  0.6163909901322620  0.6786071660506554  0.3392195736145978
  0.8344972761536995  0.6699448317136021  0.8454039838673746
