Hf O 
 1.0000000000000000
     5.3258501698628784    0.0232195628558239   -0.0859466261117603
    -0.3009157338596272    5.0769491536570373    0.0345422646597203
     0.0790397741361770   -0.0245248631380141    5.0995515976088868
 Hf  O  
   4   8
Direct
  0.0025739624404650 -0.0020584824770863 -0.0002724622886579
 -0.0039306127400518  0.4634768851100675  0.4994970983367638
  0.4664966057830930 -0.0080477852867182  0.4706441847050954
  0.5325070165748691  0.4681503997886095 -0.0294121409770501
  0.2824465702329536  0.2691687887431713  0.2338988228956174
  0.2166831457536257  0.2304110417234110  0.7348716968203899
  0.1352539641488129  0.7915528867295278  0.3100233083332505
  0.3583853522066124  0.7452686770585322  0.7737745805960801
  0.7836318538173493  0.2299720427761758  0.2355102904844983
  0.7190335786901015  0.1906064403482393  0.7345157092968964
  0.6437859351844789  0.7146593004652186  0.2743359977947398
  0.8653494426713465  0.6683230206656336  0.8108656333889194
