Hf O 
 1.0000000000000000
     5.3469397104987246   -0.1946470397245472   -0.0035063826069125
    -0.6748382770519942    5.1146288571863172   -0.0094089460090031
    -0.0001087248106007    0.0096605627522086    5.1592488525684557
 Hf  O  
   4   8
Direct
 -0.0001694416253499 -0.0009799110074002  0.0010227014568474
  0.0793515790380835  0.4495582609144592  0.5012182929062634
  0.4987506254292757 -0.0052143812787566  0.4188448101722198
  0.5803017092609685  0.4489035767542153 -0.0806277596284433
  0.3146858936295925  0.2724311078042037  0.2040760632869419
  0.2640283022593675  0.1798353076691633  0.7142695134442330
  0.1507394300345209  0.7863987518146228  0.2776548127338669
  0.4266546513484290  0.6688129441622294  0.6536869518583812
  0.8144894803277446  0.2683524668384828  0.2146245004474804
  0.7639023199566081  0.1756801400451150  0.7043943794314060
  0.6543053722851950  0.7778186470882060  0.1529193899365584
  0.9296891715380685  0.6618223650336968  0.7780453995761198
