Hf O 
 1.0000000000000000
     5.2904414402621214    0.1410693351943185   -0.1197460857184335
    -0.2164266025523900    5.0669346948003975    0.0483230963313660
     0.1083713208009600   -0.0551155235846966    5.0889231735506470
 Hf  O  
   4   8
Direct
  0.0045620843694451 -0.0027556513530763 -0.0023286329524551
 -0.0289998007836476  0.4704172463983832  0.4987163541880850
  0.4550882295567165 -0.0045012779039960  0.4885653135977855
  0.5194743676159211  0.4705436691229999 -0.0116327305358415
  0.2695950465769818  0.2704181409234991  0.2448479073456094
  0.2053889504869533  0.2478754978071485  0.7444734566088771
  0.1261570331413757  0.7958638153263845  0.3272052674674397
  0.3384886950741103  0.7694642861176407  0.8097458813463558
  0.7711660559269028  0.2191725198852301  0.2450232468459428
  0.7067590935329040  0.1943251954912652  0.7456185599512659
  0.6340299939578421  0.6960865527163883  0.3107164036624181
  0.8467354114509364  0.6702554056570932  0.8280492073539595
