Hf O 
 1.0000000000000000
     5.3470553817645081   -0.1123395873178362   -0.0466778989958754
    -0.3849609616832091    5.0939825509091410    0.0173895738465698
     0.0689151429334898   -0.0128615732425778    5.1068242495640401
 Hf  O  
   4   8
Direct
 -0.0038631668192328 -0.0013710601683075  0.0030524063092713
  0.0275550295192799  0.4600137577572592  0.5019802230894623
  0.4780567937937065 -0.0052689708341519  0.4541790289015100
  0.5460383144712165  0.4684212058867121 -0.0461604015464388
  0.2922320094323040  0.2709819587782662  0.2248593285338548
  0.2285742105613771  0.2174287057633576  0.7288030806873335
  0.1441754602635910  0.7901521548096128  0.2943556582203233
  0.3726321055014712  0.7267279150196734  0.7417182168363449
  0.7941022170732683  0.2443838768933155  0.2276072278026094
  0.7294608607134205  0.1917547329982162  0.7237317623989832
  0.6506180228888006  0.7369047799563346  0.2398357876945128
  0.8798446159013247  0.6717932404201801  0.7928518307203447
