Hf O 
 1.0000000000000000
     5.4868057193932991   -0.0004179080658136    0.0000152313450274
    -0.0004107269938514    4.9455955859775047    0.0003558977705906
     0.0000184217518042    0.0003560469402005    5.0932186727832116
 Hf  O  
   4   8
Direct
  0.0607953115009313  0.9672041417629385  0.0026519745145090
  0.0032303024196790  0.4990434135390011  0.5027032918307818
  0.5032439634219570  0.9671595717256423  0.5026982284633090
  0.5607484925771017  0.4990405952505717  0.0027183107008651
  0.1626097263949918  0.1639781892958264  0.3628175743801442
  0.4014114693150054  0.1639309257633025  0.8628269322781956
  0.3294354236382926  0.7038736611040082  0.2470974407055308
  0.2346201254139244  0.7038870336393931  0.7470807070843490
  0.6625724036081609  0.3024215677087764  0.3629195949969106
  0.9014065843531456  0.3023711753757777  0.8628970818080299
  0.8294429794490802  0.7624897683944729  0.2471616537446643
  0.7346054951228794  0.7624095080306280  0.7471418674961693
