Hf O 
 1.0000000000000000
     5.0561666266543073    0.0000000000000000    0.0000000000000000
     0.0000000000000000    5.0561666266543073    0.0000000000000000
     0.0000000000000000    0.0000000000000000    5.5793999262042790
 Hf  O  
   4   8
Direct
  0.0000000000000000  0.0000000000000000  0.0000000000000000
  0.0000000000000000  0.4999999999999992  0.5000000000000003
  0.4999999999999992  0.0000000000000000  0.5000000000000003
  0.4999999999999992  0.4999999999999992  0.0000000000000000
  0.2499999999999996  0.2499999999999996  0.1683648268868079
  0.2499999999999996  0.2499999999999996  0.6683648268868079
  0.2499999999999997  0.7499999999999997  0.3316351731131927
  0.2499999999999997  0.7499999999999997  0.8316351731131926
  0.7499999999999997  0.2499999999999997  0.3316351731131927
  0.7499999999999997  0.2499999999999997  0.8316351731131926
  0.7499999999999997  0.7499999999999997  0.1683648268868079
  0.7499999999999997  0.7499999999999997  0.6683648268868079
