Hf O
 1.0000000000000000
     5.2914507350807227    0.0000000000000000   -0.0000000000000051
     0.0000000000000000    5.1266087975855772    0.0000000000000000
    -0.0000004799226094    0.0000003543564038    5.0502039247530739
 Hf  O
   4   8
Direct
  0.0000000436235966  0.0650192587985388  0.0000000555351009
  0.4999991348600222  0.9999998289971287  0.5317830625443229
  0.5000000000000001  0.5000000000000000  0.9999999999999997
  0.9999995860981987  0.5650192911975134  0.5317835208691937
  0.1432097471197264  0.3976122460619845  0.1977096809647398
  0.6432087338261678  0.1673956094907249  0.1977075310769746
  0.2516539724768144  0.2621570574470838  0.7293234910863351
  0.7516541514657326  0.3028568703314790  0.7293244795818039
  0.1432074917005871  0.8976123392171473  0.3340768417607105
  0.6432064123019559  0.6673951564620829  0.3340793158779306
  0.2516514181233899  0.7621562010534134  0.8024632069960995
  0.7516518198125898  0.8028574144965903  0.8024622091643713
