Hf O
 1.0000000000000000
     5.3220660000000004    0.0008530000000000    0.0000000000000000
    -0.8641450000000001    5.0643419999999999   -0.0000000000000000
     0.0000020000000000   -0.0000020000000000    5.1892709999999997
 Hf  O
   4   8
Direct
  0.0003070000000000  0.9983640000000005  0.9990869999999999
  0.5844880000000000  0.4464930000000000  0.0843900000000000
  1.0844879999999999  0.4464930000000000  0.4990870000000000
  0.5003069999999999  0.9983640000000001  0.5843900000000001
  0.8148540000000000  0.2736120000000000  0.7844250000000001
  0.3148540000000000  0.2736120000000000  0.7990520000000001
  0.7699369999999998  0.1712450000000000  0.2990480000000000
  0.2699370000000000  0.1712460000000000  0.2844290000000000
  0.6399240000000000  0.7900270000000000  0.8712830000000001
  0.1399240000000000  0.7900269999999999  0.7121930000000000
  0.9448779999999999  0.6548279999999999  0.2121890000000000
  0.4448790000000000  0.6548280000000000  0.3712880000000000
