Hf O
 1.0000000000000000
     5.0758502946391850    0.0000000000000000    0.0000000000000000
    -0.0000000000000006    5.0758502946392925    0.0000000000000006
     0.0000000000000000   -0.0000000000000050    5.2390601337432896
 Hf  O
   4   8
Direct
  0.0000000000000000  0.0000000000000000  0.0000000000000000
  0.0000000000000000  0.5000000000000000  0.5000000000000000
  0.5000000000000000  0.0000000000000000  0.5000000000000000
  0.5000000000000000  0.5000000000000000  0.0000000000000000
  0.2500000000000000  0.2500000000000000  0.2500000000000000
  0.2500000000000000  0.2500000000000000  0.7500000000000000
  0.2500000000000000  0.7500000000000001  0.2500000000000000
  0.2500000000000000  0.7500000000000001  0.7500000000000000
  0.7500000000000000  0.2500000000000000  0.2500000000000000
  0.7500000000000000  0.2500000000000000  0.7500000000000000
  0.7500000000000000  0.7500000000000001  0.2500000000000000
  0.7500000000000000  0.7500000000000001  0.7500000000000000
