Hf O
 1.0000000000000000
     5.2659161792208575    0.0000003543564044    0.0000110592891538
     0.0000003543564038    5.0502039247530739   -0.0000004799226094
     0.0000114148916043   -0.0000004953541381    5.0805009265258425
 Hf  O
   4   8
Direct
  0.0000000000000000  0.9999999999999999  0.0000000000000001
  0.0650192911975134  0.5317835208691938  0.4999995860981987
  0.5650192587985388  0.0000000555351009  0.5000000436235965
  0.4999998289971289  0.5317830625443228  0.9999991348600221
  0.1673951564620830  0.3340793158779307  0.1432064123019559
  0.3976123392171474  0.3340768417607105  0.6432074917005869
  0.3028574144965904  0.8024622091643714  0.2516518198125900
  0.2621562010534135  0.8024632069960993  0.7516514181233900
  0.6673956094907250  0.1977075310769746  0.1432087338261679
  0.8976122460619848  0.1977096809647397  0.6432097471197263
  0.8028568703314790  0.7293244795818038  0.2516541514657326
  0.7621570574470838  0.7293234910863350  0.7516539724768143
