Hf O 
 1.0000000000000000
     5.2727619308170306    0.0000003525884572    0.0000109857954243
     0.0000003528994276    5.0535021992268092   -0.0000003960565719
     0.0000113522607322   -0.0000004110114564    5.0836265745071314
 Hf  O  
   4   8
Direct
  0.0326312494831764 -0.0000000076243681  0.0000000860577419
 -0.0326313144166890  0.4999997468844665  0.4999997137764777
  0.4673687505168237  0.0000000076243680  0.4999999139422580
  0.5326313144166890  0.5000002531155338  0.0000002862235222
  0.3178590619229552  0.2341302777238898  0.1961110352494186
  0.1821379036879014  0.2341287299544075  0.6961104421394529
  0.1821409380770447  0.7658697222761107  0.3038889647505813
  0.3178620963120987  0.7658712700455931  0.8038895578605466
  0.8178594958084751  0.2658696509625129  0.1961111813396572
  0.6821374407855857  0.2658713595119730  0.6961104506936142
  0.6821405041915249  0.7341303490374878  0.3038888186603427
  0.8178625592144141  0.7341286404880274  0.8038895493063853
