Hf O 
 1.0000000000000000
     5.2705449339632011    0.0000003506547180    0.0000108494261020
     0.0000003509624863    5.0525111759882124   -0.0000004298361420
     0.0000112178628420   -0.0000004449858579    5.0826858983789531
 Hf  O  
   4   8
Direct
  0.0163465386843344  0.0002047549143727 -0.0001334377241244
 -0.0487688657873732  0.4839459014219792  0.4998665756636690
  0.4512311726007742  0.0002047439922055  0.4998664274128949
  0.5163466590490667  0.4839463776513515 -0.0001328907426774
  0.2779236856981332  0.2524625014121764  0.2223083729075147
  0.1896547935674735  0.2524612566833533  0.7223080008265617
  0.1422850188639188  0.7841290810985979  0.3302523954342069
  0.3252995457749925  0.7841309424561684  0.8302532145084639
  0.7779242938426040  0.2316867102675969  0.2223097215921693
  0.6896543225542079  0.2316880364342533  0.7223091781661581
  0.6422847355284562  0.7000202835746966  0.3302534475377655
  0.8253000090863005  0.7000181887854504  0.8302543670539337
