Hf O 
 1.0000000000000000
     5.2705449339632011    0.0000003506547129    0.0000108494261020
     0.0000003509624815    5.0525111759882124   -0.0000004298361420
     0.0000112178628420   -0.0000004449858579    5.0826858983789487
 Hf  O  
   4   8
Direct
  0.0487688273992274 -0.0002047439922055  0.0001335725871050
 -0.0163466590490652  0.5160536223486507  0.5001328907426770
  0.4836534613156673 -0.0002047549143729  0.5001334377241242
  0.5487688657873748  0.5160540985780226  0.0001334243362713
  0.3577149811360854  0.2158709189014008  0.1697476045657904
  0.1747004542250067  0.2158690575438299  0.6697467854915331
  0.2220763143018708  0.7475374985878225  0.2776916270924825
  0.3103452064325257  0.7475387433166454  0.7776919991734351
  0.8577152644715479  0.2999797164252478  0.1697465524622318
  0.6746999909136989  0.2999818112145534  0.6697456329460628
  0.7220757061574002  0.7683132897324070  0.2776902784078278
  0.8103456774457912  0.7683119635657504  0.7776908218338390
