Hf O 
 1.0000000000000000
     5.2721788039761339    0.0000003518774957    0.0000109853940704
     0.0000003521957838    5.0532464749766177   -0.0000005035267779
     0.0000113511246016   -0.0000005191246212    5.0833812964198515
 Hf  O  
   4   8
Direct
  0.0407098091525716 -0.0001309983726539  0.0000837277505607
 -0.0245101686829355  0.5080496511174085  0.5000832157889386
  0.4754899456606733 -0.0001309923812071  0.5000835636713389
  0.5407098314901954  0.5080501440626402  0.0000837772322412
  0.3377903449232297  0.2249855513415361  0.1829508655010069
  0.1784043897767211  0.2249838418166088  0.6829501574435671
  0.2020923396363440  0.7567036367655690  0.2907703884014083
  0.3141083924695079  0.7567050365061025  0.7907708716639741
  0.8377906944944742  0.2829341618972926  0.1829504088891460
  0.6784039454869435  0.2829360699143217  0.6829495835045365
  0.7020918451731303  0.7512161900510738  0.2907696505336870
  0.8141088613140418  0.7512146741185003  0.7907702939947160
