Hf O 
 1.0000000000000000
     5.2682472442378829    0.0000003355962929    0.0000110186016043
     0.0000003364390683    5.0514395370199612   -0.0000007513386343
     0.0000113782508573   -0.0000007684093096    5.0816622064021191
 Hf  O  
   4   8
Direct
  0.0081639383467250  0.0001723740852098 -0.0001151967786187
 -0.0568536582649303  0.4760263731648116  0.4998849581637690
  0.4431464046725881  0.0001723454749819  0.4998846969697379
  0.5081640640917151  0.4760268217033936 -0.0001145523362037
  0.2579005758048641  0.2615983068944107  0.2353471609126466
  0.1934125784468627  0.2615971982717651  0.7353468900500579
  0.1223503029331856  0.7932172277584258  0.3434997559341639
  0.3289690814727398  0.7932192410534213  0.8435006752408684
  0.7579012817204126  0.2145980958968525  0.2353490926279507
  0.6934120822871523  0.2145992442836908  0.7353486374290978
  0.6223501089213153  0.6829793425213648  0.3435013887735717
  0.8289695542075914  0.6829770555573604  0.8435023954181841
