Hf O 
 1.0000000000000000
     5.2682472442378829    0.0000003355962929    0.0000110186016043
     0.0000003364390683    5.0514395370199612   -0.0000007513386343
     0.0000113782508573   -0.0000007684093096    5.0816622064021297
 Hf  O  
   4   8
Direct
  0.0568535953274091 -0.0001723454749820  0.0001153030302621
 -0.0081640640917180  0.5239731782966039  0.5001145523362034
  0.4918360616532721 -0.0001723740852099  0.5001151967786187
  0.5568536582649275  0.5239736268351859  0.0001150418362305
  0.3776496970668075  0.2067827722415776  0.1565002440658406
  0.1710309185272615  0.2067807589465823  0.6564993247591360
  0.2420994241951289  0.7384016931055933  0.2646528390873579
  0.3065874215531387  0.7384028017282387  0.7646531099498869
  0.8776498910786780  0.3170206574786894  0.1564986112264328
  0.6710304457924100  0.3170229444426338  0.6564976045818202
  0.7420987182795806  0.7854019041031418  0.2646509073720537
  0.8065879177128492  0.7854007557163035  0.7646513625709062
