Hf O 
 1.0000000000000000
     5.2721788039761392    0.0000003518774957    0.0000109853940704
     0.0000003521957838    5.0532464749766222   -0.0000005035267779
     0.0000113511246016   -0.0000005191246212    5.0833812964198515
 Hf  O  
   4   8
Direct
  0.0245100543393266  0.0001309923812070 -0.0000835636713390
 -0.0407098314901952  0.4919498559373601  0.4999162227677586
  0.4592901908474284  0.0001309983726538  0.4999162722494392
  0.5245101686829355  0.4919503488825918 -0.0000832157889389
  0.2979076603636560  0.2432963632344316  0.2092296115985916
  0.1858916075304921  0.2432949634938976  0.7092291283360255
  0.1622096550767704  0.7750144486584644  0.3170491344989929
  0.3215956102232789  0.7750161581833913  0.8170498425564325
  0.7979081548268698  0.2487838099489267  0.2092303494663128
  0.6858911386859582  0.2487853258815000  0.7092297060052837
  0.6622093055055260  0.7170658381027079  0.3170495911108540
  0.8215960545130566  0.7170639300856785  0.8170504164954630
