Hf O 
 1.0000000000000000
     5.2390601337432896    0.0000000000000000   -0.0000000000000050
     0.0000000000000000    5.0758502946391850    0.0000000000000000
    -0.0000879494199617    0.0000009679849489    5.0966703632292409
 Hf  O  
   4   8
Direct
  0.0062485307856300  0.0520955796133550 -0.0032928271484155
  0.5062499587352388 -0.0398704080702158  0.5092718519258673
  0.5062450298074375  0.4601251846872080 -0.0032864995525353
  0.0062531530799344  0.5520910022157766  0.5092781446945260
  0.1795215255123577  0.3588726479823574  0.2123730961470673
  0.6795239137270882  0.1533471578628087  0.2123733659968874
  0.2944465339976298  0.1890737520002410  0.7540427086006249
  0.7944480122650467  0.3231584605585289  0.7540521126097542
  0.1795244862417470  0.8588672392639576  0.2936021273662855
  0.6795269865301502  0.6533525663655314  0.2936016654077179
  0.2944674881102337  0.6890719356793844  0.7519262496057320
  0.7944688565432887  0.8231600676374480  0.7519175965912041
