Hf O 
 1.0000000000000000
     5.2390601337432896   -0.0000000000000000   -0.0000000000000050
     0.0000000000000000    5.0758502946391850    0.0000000000000000
    -0.0000083964772065    0.0000040007682884    5.0714430887771869
 Hf  O  
   4   8
Direct
 -0.0149539725285403  0.0141574616456558  0.0068131878874914
  0.4850439951425293 -0.0469366397394764  0.4771528744207507
  0.4850437833768829  0.4530633057005338  0.0068167032937393
 -0.0149534124965815  0.5141574243788393  0.4771556262411027
  0.2355329587084109  0.2541338610168245  0.2767463730993574
  0.7355334696049621  0.2130630506035293  0.2767416707701955
  0.3324546403337690  0.1231606121952084  0.8059781801611324
  0.8324515416351989  0.3440414015495439  0.8059707264420518
  0.2355356469060322  0.7541336426619770  0.2072195255464467
  0.7355363347102765  0.7130633105386315  0.2072238345177516
  0.3324553261887206  0.6231601962720319  0.6779882999115809
  0.8324526699684676  0.8440418678535505  0.6779954748643701
