Hf O 
 1.0000000000000000
     5.2390601337432896   -0.0000000000000000   -0.0000000000000050
     0.0000000000000000    5.0758502946391850    0.0000000000000000
    -0.0000877562314925    0.0000009399730008    5.0968970312147173
 Hf  O  
   4   8
Direct
 -0.0061897959620601  0.0399017368053161  0.0032100419288539
  0.4938025272498779 -0.0521213657267095  0.4907975946296081
  0.4938067360664078  0.4478741962811062  0.0032163401742878
 -0.0061942870676458  0.5398973876526008  0.4908038904367029
  0.2054941904184986  0.3112226459917796  0.2457588634609784
  0.7054927651863289  0.1765421747627558  0.2457497337820992
  0.3204863890662392  0.1412879891667745  0.7874884319532234
  0.8204842106565527  0.3464893546779331  0.7874885835497436
  0.2054740952905642  0.8112243898066599  0.2482704999662657
  0.7054728322785845  0.6765405299194960  0.2482789882943011
  0.3204840384063853  0.6412932235745865  0.7065347296744611
  0.8204816854672183  0.8464840601184689  0.7065349405509731
