Hf O 
 1.0000000000000000
     5.3023938701589088    0.0827356812905506   -0.0700366792983265
    -0.2277994017339810    5.0763848520305830    0.0212124871201295
     0.0673610805096162   -0.0182504125771026    5.0888147976070295
 Hf  O  
   4   8
Direct
  0.0134928530984212 -0.0109892297391353 -0.0129989245143460
 -0.0019604717660323  0.4697179001761897  0.4869819662812951
  0.4779674945317061 -0.0113428275312681  0.4717232739803934
  0.5336006982432431  0.4700026834819969 -0.0282266811344243
  0.2972433006991880  0.2608448245838015  0.2316403984465646
  0.2129329049841219  0.2327395526130378  0.7292542825608344
  0.1611674363241558  0.7782532126256204  0.2907212988920493
  0.3438955675586424  0.7479205158462197  0.7738618357474829
  0.7985295938321432  0.2256744522736521  0.2294904232827710
  0.7142130091725823  0.1976968342343955  0.7318478208937312
  0.6677577809454209  0.7104825135033127  0.2740877888220096
  0.8505256984189578  0.6802545732546217  0.7909202889264603
