Hf O 
 1.0000000000000000
     5.3647014779154514   -0.2557139515271963   -0.0654747372598138
    -0.5215557037712717    5.1193126943342042    0.0206421494242117
     0.0609177625748157   -0.0144051411172954    5.1210982783182324
 Hf  O  
   4   8
Direct
 -0.0252652252193138  0.0012154016308166  0.0275700052871504
  0.0469141198736710  0.4610291333547742  0.5276051104789815
  0.4743413654985520  0.0009985096398016  0.4524968820254183
  0.5473247921337298  0.4611422681928290 -0.0474543389217259
  0.2939706948360391  0.2742589070911368  0.2374750650763181
  0.2276792191226224  0.1902000775228584  0.7422566695024029
  0.1416187247161874  0.7824461167040866  0.2861085319741893
  0.3789955620160726  0.6837225144684669  0.6994874493745552
  0.7939313224195669  0.2719524650920824  0.2422952325420463
  0.7276485772447916  0.1879119937425416  0.7375169176167572
  0.6427216127218395  0.7784543986118031  0.1995052592329994
  0.8800777409869187  0.6797078247945937  0.7861556347608125
