Hf O 
 1.0000000000000000
     5.3418146452173243   -0.0882212195784536   -0.0757827325202872
    -0.3960994727504787    5.0947171533081868    0.0266707051092955
     0.0709078090853817   -0.0210777195072223    5.0969364049080159
 Hf  O  
   4   8
Direct
 -0.0154096711973555 -0.0059432479466430  0.0172374098903086
  0.0238879519949232  0.4658464196929452  0.5172469000804067
  0.4742580007070162 -0.0077954896539656  0.4671783279639040
  0.5342456980666042  0.4674827848318203 -0.0327594911816862
  0.2943130880867770  0.2657422859015818  0.2413405587597243
  0.2134597373073214  0.2097570201402533  0.7420289556207174
  0.1528846940157892  0.7772708038955880  0.2867556985001453
  0.3506490890765435  0.7113453491856682  0.7404710082573183
  0.7949273979389102  0.2497576186313805  0.2422521753072553
  0.7140842876237419  0.1938816061442405  0.7415516434238517
  0.6579123959182465  0.7481012772465573  0.2407386184007663
  0.8557012259908757  0.6823819951510132  0.7869423400065286
