Hf O 
 1.0000000000000000
     5.2672841931620127    0.1799719203466930   -0.1010444340910579
    -0.1721534745236767    5.0503355839754569    0.0462387947877029
     0.0993555712402268   -0.0431296322631267    5.0823594769396312
 Hf  O  
   4   8
Direct
  0.0100144340845274 -0.0009632314602462 -0.0071696754230245
 -0.0537417640602454  0.4686586730996545  0.4928179119607268
  0.4462740674044194 -0.0009798884656522  0.4927883522622383
  0.5099992454444324  0.4687342233349794 -0.0071950152515223
  0.2516404587320784  0.2683749885333930  0.2414296515873048
  0.2046154410428996  0.2683945235915798  0.7414213830127646
  0.1159291429990925  0.7986692910118748  0.3444863091045379
  0.3404359148215358  0.7987538198171164  0.8445241026795924
  0.7516316576579662  0.1992704999727077  0.2414608128494585
  0.7045981617698527  0.1993602988757081  0.7414638881152407
  0.6159019106956694  0.6689713884168661  0.3445304479426701
  0.8404160985936845  0.6690248994161606  0.8444997770581080
