Hf O 
 1.0000000000000000
     5.2796615232378796    0.1654480565985526   -0.0892508461238091
    -0.1681902500376664    5.0609032777176335    0.0346288780782042
     0.0877118031180436   -0.0318969324319336    5.0894970893178186
 Hf  O  
   4   8
Direct
  0.0250859836662129 -0.0065704658117439 -0.0207409318552232
 -0.0301628468861122  0.4683253511795716  0.4792453904741756
  0.4673909182409666 -0.0061058618719351  0.4782053532438507
  0.5275478570592337  0.4679716696682202 -0.0217617749375485
  0.2790992348414170  0.2618121237910662  0.2284617322857739
  0.2154119151196408  0.2569284194673712  0.7279488011175270
  0.1432749538895589  0.7878358503881484  0.3158889675198989
  0.3497959226345352  0.7829286301351468  0.8134291548768888
  0.7794757289297927  0.2047972280923813  0.2280314339315000
  0.7157843141741708  0.1999693275173041  0.7285390176441340
  0.6451532626304106  0.6788332790647731  0.3134682489505755
  0.8517041204659745  0.6739222156055321  0.8159155090340192
