Hf O 
 1.0000000000000000
     5.2390601337432896    0.0000000000000000   -0.0000000000000050
     0.0000000000000000    5.0758502946391850    0.0000000000000000
    -0.0000583581323170    0.0000030678777825    5.0808567967363896
 Hf  O  
   4   8
Direct
 -0.0153389359855715  0.0269097721335819  0.0074061549825102
  0.4846578742761423 -0.0427088952316189  0.4848622005291800
  0.4846585704848948  0.4572894072121793  0.0074122626952387
 -0.0153391617925332  0.5269084274122975  0.4848681227276064
  0.2213344445884126  0.2836990122330859  0.2653277883407076
  0.7213335465991823  0.2004904272723115  0.2653214947535452
  0.3195636899451356  0.1374607592836846  0.7978749892147042
  0.8195617013141783  0.3467369743960831  0.7978734932579958
  0.2213348224077063  0.7836979001982814  0.2269455001836008
  0.7213342804486641  0.7004919128143208  0.2269511197240172
  0.3195680454630827  0.6374613972725195  0.6943977149059712
  0.8195660850736119  0.8467364772207198  0.6943989116017286
