Hf O 
 1.0000000000000000
     5.2390601337432896   -0.0000000000000000   -0.0000000000000050
     0.0000000000000000    5.0758502946391850    0.0000000000000000
    -0.0000584699415190    0.0000030382540888    5.0806173880057299
 Hf  O  
   4   8
Direct
  0.0153910818204402  0.0426713517664732 -0.0074859176495302
  0.5153890130856549 -0.0268670030176308  0.5152074798667107
  0.5153885659341220  0.4731316335056963 -0.0074798046469670
  0.0153919475117131  0.5426695747567795  0.5152134017007834
  0.1804844319100645  0.3626352613461425  0.2020124293209480
  0.6804866351445477  0.1531697242097053  0.2020142976974205
  0.2785631908096635  0.2166879151145454  0.7344535956832426
  0.7785639889453361  0.2991251195160287  0.7344599467022218
  0.1804804628832969  0.8626345053949552  0.3057162787852371
  0.6804826005016424  0.6531703694561967  0.3057146766065377
  0.2785632135824478  0.7166889147786206  0.7732744866813019
  0.7785639000840526  0.7991238120227306  0.7732686651842990
