Hf O 
 1.0000000000000000
     5.2390601337432896   -0.0000000000000000   -0.0000000000000050
     0.0000000000000000    5.0758502946391850    0.0000000000000000
    -0.0000084028904016    0.0000039013343272    5.0713954355474851
 Hf  O  
   4   8
Direct
  0.0149572794195916  0.0469422830370833 -0.0068495013800513
  0.5149546630829098 -0.0141290487625159  0.5228942756909765
  0.5149550984162748  0.4858709151436396 -0.0068460590587675
  0.0149571644655923  0.5469421805289439  0.5228969341984918
  0.1676122573248835  0.3768769132388434  0.1939358845279541
  0.6676155868556783  0.1559557442674363  0.1939438366347057
  0.2643431090563388  0.2463430754710116  0.7230382880140906
  0.7643425256014293  0.2864945074423199  0.7230429949187070
  0.1676118690030431  0.8768773002813026  0.3221142944753038
  0.6676146545115901  0.6559553679932703  0.3221067106977057
  0.2643407475168237  0.7463430522587572  0.7930124648661758
  0.7643400531503838  0.7864941345546054  0.7930081342650105
