Hf O 
 1.0000000000000000
     5.2390601337432896   -0.0000000000000000   -0.0000000000000050
     0.0000000000000000    5.0758502946391850    0.0000000000000000
    -0.0000019231416584    0.0000049217679620    5.1057214256308496
 Hf  O  
   4   8
Direct
  0.0000244729090306  0.0582880767079571 -0.0000368290583046
  0.5000234281989260 -0.0582968553927069  0.5000207716456312
  0.5000228943584218  0.4417030772590337 -0.0000326466798867
  0.0000248193891803  0.5582880868471815  0.5000244699445477
  0.1833861705823381  0.3477687031501746  0.2243401005293031
  0.6833868050264718  0.1522196313117249  0.2243372657033010
  0.3166043527218838  0.1524257610623284  0.7754950620718639
  0.8166040819526955  0.3475687766196913  0.7754983607672152
  0.1833862200368046  0.8477687346039073  0.2756476851369294
  0.6833867992865434  0.6522197274337919  0.2756503883684578
  0.3166046624203944  0.6524259973825211  0.7244926675685427
  0.8166039075915531  0.8475681476647452  0.7244899901692189
