
     Program PWSCF v.7.0 starts on 24Sep2026 at 12:38:23 

     This program is part of the open-source Quantum ESPRESSO suite
     for quantum simulation of materials; please cite
         "P. Giannozzi et al., J. Phys.:Condens. Matter 21 395502 (2009);
         "P. Giannozzi et al., J. Phys.:Condens. Matter 29 465901 (2017);
         "P. Giannozzi et al., J. Chem. Phys. 152 154105 (2020);
          URL http://www.quantum-espresso.org", 
     in publications or presentations arising from this work. More details at
     http://www.quantum-espresso.org/quote

     Parallel version (MPI & OpenMP), running on       1 processor cores
     Number of MPI processes:                 1
     Threads/MPI process:                     1

     MPI processes distributed on     1 nodes
     78414 MiB available memory on the printing compute node when the environment starts
 
     Reading input from espresso.pwi
Warning: card &CELL ignored
Warning: card / ignored
Warning: card &FCP ignored
Warning: card / ignored
Warning: card &RISM ignored
Warning: card / ignored

     Current dimensions of program PWSCF are:
     Max number of different atomic species (ntypx) = 10
     Max number of k-points (npk) =  40000
     Max angular momentum in pseudopotentials (lmaxx) =  4
     Message from routine setup:
     using ibrav=0 with symmetry is DISCOURAGED, use correct ibrav instead

     Subspace diagonalization in iterative solution of the eigenvalue problem:
     a serial algorithm will be used

 
     G-vector sticks info
     --------------------
     sticks:   dense  smooth     PW     G-vecs:    dense   smooth      PW
     Sum        1327     883    269                61223    33303    5451
 
     Using Slab Decomposition
 


     bravais-lattice index     =            0
     lattice parameter (alat)  =       5.3400  a.u.
     unit-cell volume          =     246.9854 (a.u.)^3
     number of atoms/cell      =            4
     number of atomic types    =            2
     number of electrons       =        36.00
     number of Kohn-Sham states=           18
     kinetic-energy cutoff     =     100.0000  Ry
     charge density cutoff     =     600.0000  Ry
     scf convergence threshold =      1.0E-09
     mixing beta               =       0.3000
     number of iterations used =            8  plain     mixing
     Exchange-correlation= PBE
                           (   1   4   3   4   0   0   0)

     celldm(1)=   5.339997  celldm(2)=   0.000000  celldm(3)=   0.000000
     celldm(4)=   0.000000  celldm(5)=   0.000000  celldm(6)=   0.000000

     crystal axes: (cart. coord. in units of alat)
               a(1) = (   0.638698  -0.769457  -0.000000 )  
               a(2) = (   0.638698   0.769457   0.000000 )  
               a(3) = (   0.000000   0.000000   1.650205 )  

     reciprocal axes: (cart. coord. in units 2 pi/alat)
               b(1) = (  0.782842 -0.649809  0.000000 )  
               b(2) = (  0.782842  0.649809 -0.000000 )  
               b(3) = (  0.000000 -0.000000  0.605985 )  


     PseudoPot. # 1 for Ga read from file:
     /public/home/iai806/abacus/agent-runs/20260921-varneb-material/pseudopotentials/PseudoDojo-NC-SR-PBE-v0.4-standard/Ga.upf
     MD5 check sum: 1dab1120439dbbd6bc0d72f1572cd79e
     Pseudo is Norm-conserving + core correction, Zval = 13.0
     Generated using ONCVPSP code by D. R. Hamann
     Using radial grid of 1902 points,  6 beta functions with: 
                l(1) =   0
                l(2) =   0
                l(3) =   1
                l(4) =   1
                l(5) =   2
                l(6) =   2

     PseudoPot. # 2 for N  read from file:
     /public/home/iai806/abacus/agent-runs/20260921-varneb-material/pseudopotentials/PseudoDojo-NC-SR-PBE-v0.4-standard/N.upf
     MD5 check sum: f4c008f9cb44e1ab48a7c84085afd0f9
     Pseudo is Norm-conserving + core correction, Zval =  5.0
     Generated using ONCVPSP code by D. R. Hamann
     Using radial grid of 1058 points,  4 beta functions with: 
                l(1) =   0
                l(2) =   0
                l(3) =   1
                l(4) =   1

     atomic species   valence    mass     pseudopotential
        Ga            13.00    69.72300     Ga( 1.00)
        N              5.00    14.00700     N ( 1.00)

      2 Sym. Ops. (no inversion) found



   Cartesian axes

     site n.     atom                  positions (alat units)
         1           Ga  tau(   1) = (   0.6386982  -0.2389436   0.8599133  )
         2           Ga  tau(   2) = (   0.6386982   0.3830501   1.6850157  )
         3           N   tau(   3) = (   0.6386982  -0.2841775   1.5238137  )
         4           N   tau(   4) = (   0.6386982   0.4282837   0.6987112  )

     number of k points=    17
                       cart. coord. in units 2pi/alat
        k(    1) = (   0.0000000   0.0000000   0.0000000), wk =   0.0416667
        k(    2) = (   0.0000000  -0.0000000   0.2019951), wk =   0.0833333
        k(    3) = (   0.1957106   0.1624521  -0.0000000), wk =   0.1666667
        k(    4) = (   0.1957106   0.1624521   0.2019951), wk =   0.1666667
        k(    5) = (  -0.3914212  -0.3249043   0.0000000), wk =   0.0833333
        k(    6) = (  -0.3914212  -0.3249043   0.2019951), wk =   0.1666667
        k(    7) = (   0.3914212   0.0000000   0.0000000), wk =   0.0833333
        k(    8) = (   0.3914212  -0.0000000   0.2019951), wk =   0.1666667
        k(    9) = (  -0.1957106  -0.4873564   0.0000000), wk =   0.1666667
        k(   10) = (  -0.1957106  -0.4873564   0.2019951), wk =   0.1666667
        k(   11) = (   0.0000000  -0.3249043   0.0000000), wk =   0.0833333
        k(   12) = (   0.0000000  -0.3249043   0.2019951), wk =   0.0833333
        k(   13) = (  -0.7828424   0.0000000   0.0000000), wk =   0.0416667
        k(   14) = (  -0.7828424  -0.0000000   0.2019951), wk =   0.0833333
        k(   15) = (  -0.1957106   0.1624521  -0.2019951), wk =   0.1666667
        k(   16) = (   0.1957106  -0.4873564  -0.2019951), wk =   0.1666667
        k(   17) = (   0.0000000  -0.3249043  -0.2019951), wk =   0.0833333

     Dense  grid:    61223 G-vectors     FFT dimensions: (  45,  45,  72)

     Smooth grid:    33303 G-vectors     FFT dimensions: (  36,  36,  60)

     Estimated max dynamical RAM per process >      69.64 MB

     Initial potential from superposition of free atoms

     starting charge      35.9946, renormalised to      36.0000
     Starting wfcs are   26 randomized atomic wfcs

     total cpu time spent up to now is        1.8 secs

     Self-consistent Calculation

     iteration #  1     ecut=   100.00 Ry     beta= 0.30
     Davidson diagonalization with overlap
     ethr =  1.00E-02,  avg # of iterations =  2.0

     total cpu time spent up to now is        4.4 secs

     total energy              =    -347.21922288 Ry
     estimated scf accuracy    <       1.07070043 Ry

     iteration #  2     ecut=   100.00 Ry     beta= 0.30
     Davidson diagonalization with overlap
     ethr =  2.97E-03,  avg # of iterations =  2.0

     total cpu time spent up to now is        6.7 secs

     total energy              =    -347.31804904 Ry
     estimated scf accuracy    <       0.08694890 Ry

     iteration #  3     ecut=   100.00 Ry     beta= 0.30
     Davidson diagonalization with overlap
     ethr =  2.42E-04,  avg # of iterations =  3.8

     total cpu time spent up to now is        9.4 secs

     total energy              =    -347.34132132 Ry
     estimated scf accuracy    <       0.01146046 Ry

     iteration #  4     ecut=   100.00 Ry     beta= 0.30
     Davidson diagonalization with overlap
     ethr =  3.18E-05,  avg # of iterations =  3.2

     total cpu time spent up to now is       11.8 secs

     total energy              =    -347.34198572 Ry
     estimated scf accuracy    <       0.00679678 Ry

     iteration #  5     ecut=   100.00 Ry     beta= 0.30
     Davidson diagonalization with overlap
     ethr =  1.89E-05,  avg # of iterations =  2.1

     total cpu time spent up to now is       14.0 secs

     total energy              =    -347.34253833 Ry
     estimated scf accuracy    <       0.00036062 Ry

     iteration #  6     ecut=   100.00 Ry     beta= 0.30
     Davidson diagonalization with overlap
     ethr =  1.00E-06,  avg # of iterations =  4.1

     total cpu time spent up to now is       16.9 secs

     total energy              =    -347.34276850 Ry
     estimated scf accuracy    <       0.00036493 Ry

     iteration #  7     ecut=   100.00 Ry     beta= 0.30
     Davidson diagonalization with overlap
     ethr =  1.00E-06,  avg # of iterations =  2.0

     total cpu time spent up to now is       19.2 secs

     total energy              =    -347.34280075 Ry
     estimated scf accuracy    <       0.00002478 Ry

     iteration #  8     ecut=   100.00 Ry     beta= 0.30
     Davidson diagonalization with overlap
     ethr =  6.88E-08,  avg # of iterations =  4.1

     total cpu time spent up to now is       22.0 secs

     total energy              =    -347.34281410 Ry
     estimated scf accuracy    <       0.00000217 Ry

     iteration #  9     ecut=   100.00 Ry     beta= 0.30
     Davidson diagonalization with overlap
     ethr =  6.04E-09,  avg # of iterations =  2.5

     total cpu time spent up to now is       24.3 secs

     total energy              =    -347.34281227 Ry
     estimated scf accuracy    <       0.00000539 Ry

     iteration # 10     ecut=   100.00 Ry     beta= 0.30
     Davidson diagonalization with overlap
     ethr =  6.04E-09,  avg # of iterations =  2.2

     total cpu time spent up to now is       26.7 secs

     total energy              =    -347.34281248 Ry
     estimated scf accuracy    <       0.00000074 Ry

     iteration # 11     ecut=   100.00 Ry     beta= 0.30
     Davidson diagonalization with overlap
     ethr =  2.07E-09,  avg # of iterations =  2.5

     total cpu time spent up to now is       28.9 secs

     total energy              =    -347.34281253 Ry
     estimated scf accuracy    <       0.00000013 Ry

     iteration # 12     ecut=   100.00 Ry     beta= 0.30
     Davidson diagonalization with overlap
     ethr =  3.70E-10,  avg # of iterations =  3.8

     total cpu time spent up to now is       31.4 secs

     total energy              =    -347.34281255 Ry
     estimated scf accuracy    <          9.6E-09 Ry

     iteration # 13     ecut=   100.00 Ry     beta= 0.30
     Davidson diagonalization with overlap
     ethr =  2.66E-11,  avg # of iterations =  2.5

     total cpu time spent up to now is       33.7 secs

     total energy              =    -347.34281255 Ry
     estimated scf accuracy    <          4.4E-09 Ry

     iteration # 14     ecut=   100.00 Ry     beta= 0.30
     Davidson diagonalization with overlap
     ethr =  1.21E-11,  avg # of iterations =  2.2

     total cpu time spent up to now is       36.1 secs

     End of self-consistent calculation

          k = 0.0000 0.0000 0.0000 (  4183 PWs)   bands (ev):

    -3.0630  -1.5897   0.5168   0.6064   0.6324   0.7715   0.8542   0.9214
     0.9510   1.0759   1.0802   2.8755   6.6292  11.7539  13.5523  13.7970
    14.7341  14.9813

          k = 0.0000-0.0000 0.2020 (  4190 PWs)   bands (ev):

    -2.6069  -1.8185   0.5321   0.5925   0.6508   0.8528   0.8573   0.9045
     0.9652   1.0086   1.0693   1.5110   9.0746  12.2187  12.5347  13.2318
    13.9505  14.6314

          k = 0.1957 0.1625-0.0000 (  4164 PWs)   bands (ev):

    -2.2403  -1.2361   0.5248   0.6193   0.7253   0.7860   0.8432   0.8631
     0.9279   0.9706   1.0829   2.9832   7.5937   9.1003  10.9790  13.3625
    13.7156  14.7717

          k = 0.1957 0.1625 0.2020 (  4181 PWs)   bands (ev):

    -1.8609  -1.3302   0.5252   0.5832   0.6724   0.7756   0.8686   0.9032
     0.9607   1.0282   1.0704   1.8703   8.2996   9.7402  11.0226  13.5479
    13.8299  14.4257

          k =-0.3914-0.3249 0.0000 (  4172 PWs)   bands (ev):

    -1.1062  -0.9285   0.5758   0.6705   0.7198   0.7464   0.8311   0.8360
     0.9533   1.0683   1.7481   2.0119   7.5114   8.0323  10.1119  11.2413
    13.8561  14.8415

          k =-0.3914-0.3249 0.2020 (  4166 PWs)   bands (ev):

    -0.9483  -0.8620   0.5517   0.5941   0.6527   0.6592   0.9224   0.9590
     1.0513   1.0726   1.7188   1.8666   6.5222   6.8768  12.2258  12.8185
    14.1676  14.6274

          k = 0.3914 0.0000 0.0000 (  4175 PWs)   bands (ev):

    -1.4415  -1.0073   0.5873   0.7460   0.7910   0.8045   0.8476   0.8492
     0.9239   1.0564   1.1085   3.0699   8.3765   9.8192   9.8649  10.0862
    12.6565  12.7800

          k = 0.3914-0.0000 0.2020 (  4172 PWs)   bands (ev):

    -1.2039  -0.9870   0.5876   0.6402   0.7771   0.8058   0.8228   0.8449
     0.9342   0.9883   1.4293   2.3299   7.9482   8.8369  10.5077  11.8518
    12.1664  13.6262

          k =-0.1957-0.4874 0.0000 (  4155 PWs)   bands (ev):

    -1.2554  -1.1172   0.5051   0.6169   0.8099   0.8382   0.8777   0.9790
     1.0331   1.0669   2.3445   3.1283   7.9917   8.6407  10.2859  10.8764
    12.3004  12.7509

          k =-0.1957-0.4874 0.2020 (  4159 PWs)   bands (ev):

    -1.1145  -1.0474   0.5266   0.6015   0.7155   0.7893   0.8506   0.9202
     1.0530   1.0940   2.5087   2.9285   7.3451   7.8347  10.8482  11.6634
    12.5130  13.3936

          k = 0.0000-0.3249 0.0000 (  4187 PWs)   bands (ev):

    -2.0093  -1.2735   0.5794   0.6765   0.7469   0.8341   0.8721   0.8888
     0.9413   1.0755   1.1513   3.5147   8.1412   9.8675  11.2704  11.7042
    12.5048  14.0234

          k = 0.0000-0.3249 0.2020 (  4175 PWs)   bands (ev):

    -1.6979  -1.3168   0.6480   0.6492   0.6923   0.7810   0.8302   0.8646
     0.9190   1.0095   1.4346   2.3898   9.4460  10.4399  10.8052  11.7340
    12.4073  13.7167

          k =-0.7828 0.0000 0.0000 (  4112 PWs)   bands (ev):

    -1.4083  -1.2679   0.4873   0.5431   0.8433   0.9115   0.9937   1.0175
     1.1732   1.1809   3.4336   4.3274   7.5383   8.3313  10.5754  11.0115
    11.3666  13.1985

          k =-0.7828-0.0000 0.2020 (  4142 PWs)   bands (ev):

    -1.2813  -1.2109   0.5799   0.6023   0.7102   0.8361   0.8655   0.9691
     1.1744   1.1775   3.5750   4.0128   8.0051   8.9858   9.4159  10.4649
    11.4132  12.5094

          k =-0.1957 0.1625-0.2020 (  4181 PWs)   bands (ev):

    -1.8609  -1.3302   0.5252   0.5832   0.6724   0.7756   0.8686   0.9032
     0.9607   1.0282   1.0704   1.8703   8.2996   9.7402  11.0226  13.5479
    13.8299  14.4257

          k = 0.1957-0.4874-0.2020 (  4159 PWs)   bands (ev):

    -1.1145  -1.0474   0.5266   0.6015   0.7155   0.7893   0.8506   0.9202
     1.0530   1.0940   2.5087   2.9285   7.3451   7.8347  10.8482  11.6634
    12.5130  13.3936

          k = 0.0000-0.3249-0.2020 (  4175 PWs)   bands (ev):

    -1.6979  -1.3168   0.6480   0.6492   0.6923   0.7810   0.8302   0.8646
     0.9190   1.0095   1.4346   2.3898   9.4460  10.4399  10.8052  11.7340
    12.4073  13.7167

     highest occupied level (ev):    14.9813

!    total energy              =    -347.34281255 Ry
     estimated scf accuracy    <          2.4E-10 Ry

     The total energy is the sum of the following terms:
     one-electron contribution =     -68.94987636 Ry
     hartree contribution      =      74.23745069 Ry
     xc contribution           =     -96.72423296 Ry
     ewald contribution        =    -255.90615392 Ry

     convergence has been achieved in  14 iterations

     Forces acting on atoms (cartesian axes, Ry/au):

     atom    1 type  1   force =     0.00000000   -0.00005481   -0.00026589
     atom    2 type  1   force =     0.00000000    0.00005479   -0.00026507
     atom    3 type  2   force =     0.00000000   -0.00006697    0.00026572
     atom    4 type  2   force =     0.00000000    0.00006699    0.00026524

     Total force =     0.000545     Total SCF correction =     0.000008


     Computing stress (Cartesian axis) and pressure

          total   stress  (Ry/bohr**3)                   (kbar)     P=      457.55
   0.00311926   0.00000000   0.00000000          458.86        0.00        0.00
   0.00000000   0.00310247   0.00000000            0.00      456.39        0.00
   0.00000000   0.00000000   0.00310928            0.00        0.00      457.39

 
     init_run     :      1.71s CPU      1.74s WALL (       1 calls)
     electrons    :     34.07s CPU     34.27s WALL (       1 calls)
     forces       :      0.72s CPU      0.73s WALL (       1 calls)
     stress       :      1.51s CPU      1.53s WALL (       1 calls)

     Called by init_run:
     wfcinit      :      1.06s CPU      1.07s WALL (       1 calls)
     potinit      :      0.25s CPU      0.26s WALL (       1 calls)
     hinit0       :      0.37s CPU      0.38s WALL (       1 calls)

     Called by electrons:
     c_bands      :     29.36s CPU     29.51s WALL (      14 calls)
     sum_band     :      3.93s CPU      3.94s WALL (      14 calls)
     v_of_rho     :      0.68s CPU      0.69s WALL (      15 calls)
     mix_rho      :      0.11s CPU      0.11s WALL (      14 calls)

     Called by c_bands:
     init_us_2    :      0.58s CPU      0.61s WALL (     527 calls)
     init_us_2:cp :      0.58s CPU      0.61s WALL (     527 calls)
     cegterg      :     26.64s CPU     26.69s WALL (     238 calls)

     Called by *egterg:
     cdiaghg      :      0.32s CPU      0.32s WALL (     897 calls)
     h_psi        :     22.48s CPU     22.52s WALL (     914 calls)
     g_psi        :      0.11s CPU      0.11s WALL (     659 calls)

     Called by h_psi:
     h_psi:calbec :      2.29s CPU      2.29s WALL (     914 calls)
     vloc_psi     :     17.99s CPU     18.03s WALL (     914 calls)
     add_vuspsi   :      2.13s CPU      2.13s WALL (     914 calls)

     General routines
     calbec       :      2.57s CPU      2.57s WALL (     999 calls)
     fft          :      0.31s CPU      0.32s WALL (     202 calls)
     ffts         :      0.02s CPU      0.02s WALL (      29 calls)
     fftw         :     20.04s CPU     20.09s WALL (   27416 calls)
     interpolate  :      0.04s CPU      0.04s WALL (      15 calls)
 
     Parallel routines
 
     PWSCF        :     38.06s CPU     38.34s WALL

 
   This run was terminated on:  12:39: 1  24Sep2026            

=------------------------------------------------------------------------------=
   JOB DONE.
=------------------------------------------------------------------------------=
