 vasp.6.3.2 27Jun22 (build Sep 18 2026 15:57:57) complex                        
  
 executed on             LinuxIFC date 2026.10.01  17:45:03
 running on   32 total cores
 distrk:  each k-point on   32 cores,    1 groups
 distr:  one band on NCORE=   1 cores,   32 groups


--------------------------------------------------------------------------------------------------------


 INCAR:
   ENCUT = 600.000000
   SIGMA = 0.050000
   EDIFF = 1.00e-07
   SYMPREC = 1.00e-04
   GGA = PE
   PREC = Accurate
   IBRION = -1
   ISIF = 2
   ISMEAR = 0
   ISYM = -1
   NSW = 0
   LCHARG = .FALSE.
   LWAVE = .FALSE.

 POTCAR:    PAW_PBE Ga_d 06Jul2010                
 POTCAR:    PAW_PBE N 08Apr2002                   
 -----------------------------------------------------------------------------
|                                                                             |
|           W    W    AA    RRRRR   N    N  II  N    N   GGGG   !!!           |
|           W    W   A  A   R    R  NN   N  II  NN   N  G    G  !!!           |
|           W    W  A    A  R    R  N N  N  II  N N  N  G       !!!           |
|           W WW W  AAAAAA  RRRRR   N  N N  II  N  N N  G  GGG   !            |
|           WW  WW  A    A  R   R   N   NN  II  N   NN  G    G                |
|           W    W  A    A  R    R  N    N  II  N    N   GGGG   !!!           |
|                                                                             |
|     For optimal performance we recommend to set                             |
|       NCORE = 2 up to number-of-cores-per-socket                            |
|     NCORE specifies how many cores store one orbital (NPAR=cpu/NCORE).      |
|     This setting can greatly improve the performance of VASP for DFT.       |
|     The default, NCORE=1 might be grossly inefficient on modern             |
|     multi-core architectures or massively parallel machines. Do your        |
|     own testing! More info at https://www.vasp.at/wiki/index.php/NCORE      |
|     Unfortunately you need to use the default for GW and RPA                |
|     calculations (for HF NCORE is supported but not extensively tested      |
|     yet).                                                                   |
|                                                                             |
 -----------------------------------------------------------------------------

 POTCAR:    PAW_PBE Ga_d 06Jul2010                
   VRHFIN =Ga: s2p1                                                                                 
   LEXCH  = PE                                                                                      
   EATOM  =  2148.8298 eV,  157.9345 Ry                                                             
                                                                                                    
   TITEL  = PAW_PBE Ga_d 06Jul2010                                                                  
   LULTRA =        F    use ultrasoft PP ?                                                          
   IUNSCR =        1    unscreen: 0-lin 1-nonlin 2-no                                               
   RPACOR =    1.700    partial core radius                                                         
   POMASS =   69.723; ZVAL   =   13.000    mass and valenz                                          
   RCORE  =    2.300    outmost cutoff radius                                                       
   RWIGS  =    2.300; RWIGS  =    1.217    wigner-seitz radius (au A)                               
   ENMAX  =  282.691; ENMIN  =  212.018 eV                                                          
   ICORE  =        3    local potential                                                             
   LCOR   =        T    correct aug charges                                                         
   LPAW   =        T    paw PP                                                                      
   EAUG   =  490.690                                                                                
   DEXC   =    0.000                                                                                
   RMAX   =    2.341    core radius for proj-oper                                                   
   RAUG   =    1.300    factor for augmentation sphere                                              
   RDEP   =    2.413    radius for radial grids                                                     
   RDEPT  =    1.856    core radius for aug-charge                                                  
                                                                                                    
   Atomic configuration                                                                             
    9 entries                                                                                       
     n  l   j            E        occ.                                                              
     1  0  0.50    -10228.7831   2.0000                                                             
     2  0  0.50     -1262.1604   2.0000                                                             
     2  1  1.50     -1098.6333   6.0000                                                             
     3  0  0.50      -148.1110   2.0000                                                             
     3  1  1.50       -98.8436   6.0000                                                             
     3  2  2.50       -19.1549  10.0000                                                             
     4  0  0.50        -8.9483   2.0000                                                             
     4  1  0.50        -2.5791   1.0000                                                             
     4  3  2.50        -2.7416   0.0000                                                             
   Description                                                                                      
     l       E           TYP  RCUT    TYP  RCUT                                                     
     2    -19.1549037     23  2.300                                                                 
     2     -5.4423304     23  2.300                                                                 
     0     -8.9483111     23  2.300                                                                 
     0     68.0291300     23  2.300                                                                 
     1     -2.5790802     23  2.100                                                                 
     1     81.6349560     23  2.300                                                                 
     3      6.8029130     23  2.300                                                                 
  local pseudopotential read in
  partial core-charges read in
  partial kinetic energy density read in
  atomic valenz-charges read in
  non local Contribution for L=           2  read in
    real space projection operators read in
  non local Contribution for L=           2  read in
    real space projection operators read in
  non local Contribution for L=           0  read in
    real space projection operators read in
  non local Contribution for L=           0  read in
    real space projection operators read in
  non local Contribution for L=           1  read in
    real space projection operators read in
  non local Contribution for L=           1  read in
    real space projection operators read in
    PAW grid and wavefunctions read in
 
   number of l-projection  operators is LMAX  =           6
   number of lm-projection operators is LMMAX =          18
 
 POTCAR:    PAW_PBE N 08Apr2002                   
   VRHFIN =N: s2p3                                                                                  
   LEXCH  = PE                                                                                      
   EATOM  =   264.5486 eV,   19.4438 Ry                                                             
                                                                                                    
   TITEL  = PAW_PBE N 08Apr2002                                                                     
   LULTRA =        F    use ultrasoft PP ?                                                          
   IUNSCR =        1    unscreen: 0-lin 1-nonlin 2-no                                               
   RPACOR =    1.200    partial core radius                                                         
   POMASS =   14.001; ZVAL   =    5.000    mass and valenz                                          
   RCORE  =    1.500    outmost cutoff radius                                                       
   RWIGS  =    1.400; RWIGS  =    0.741    wigner-seitz radius (au A)                               
   ENMAX  =  400.000; ENMIN  =  300.000 eV                                                          
   ICORE  =        2    local potential                                                             
   LCOR   =        T    correct aug charges                                                         
   LPAW   =        T    paw PP                                                                      
   EAUG   =  627.112                                                                                
   DEXC   =    0.000                                                                                
   RMAX   =    1.529    core radius for proj-oper                                                   
   RAUG   =    1.300    factor for augmentation sphere                                              
   RDEP   =    1.514    radius for radial grids                                                     
   RDEPT  =    1.338    core radius for aug-charge                                                  
                                                                                                    
   Atomic configuration                                                                             
    4 entries                                                                                       
     n  l   j            E        occ.                                                              
     1  0  0.50      -384.7179   2.0000                                                             
     2  0  0.50       -18.5828   2.0000                                                             
     2  1  0.50        -7.0898   3.0000                                                             
     3  2  1.50        -6.8029   0.0000                                                             
   Description                                                                                      
     l       E           TYP  RCUT    TYP  RCUT                                                     
     0    -18.5828119     23  1.200                                                                 
     0    -13.5018863     23  1.200                                                                 
     1     -7.0897853     23  1.500                                                                 
     1      9.5240782     23  1.500                                                                 
     2     -6.8029130      7  1.500                                                                 
  local pseudopotential read in
  partial core-charges read in
  partial kinetic energy density read in
  atomic valenz-charges read in
  non local Contribution for L=           0  read in
    real space projection operators read in
  non local Contribution for L=           0  read in
    real space projection operators read in
  non local Contribution for L=           1  read in
    real space projection operators read in
  non local Contribution for L=           1  read in
    real space projection operators read in
    PAW grid and wavefunctions read in
 
   number of l-projection  operators is LMAX  =           4
   number of lm-projection operators is LMMAX =           8
 
  PAW_PBE Ga_d 06Jul2010                :
 energy of atom  1       EATOM=-2148.8298
 kinetic energy error for atom=    0.0018 (will be added to EATOM!!)
  PAW_PBE N 08Apr2002                   :
 energy of atom  2       EATOM= -264.5486
 kinetic energy error for atom=    0.0103 (will be added to EATOM!!)
 
 
 POSCAR: Ga N
  positions in direct lattice
  No initial velocities read in
 exchange correlation table for  LEXCH =        8
   RHO(1)=    0.500       N(1)  =     2000
   RHO(2)=  100.500       N(2)  =     4000
 


--------------------------------------------------------------------------------------------------------


 ion  position               nearest neighbor table
   1  0.655  0.345  0.522-   3 1.88   4 1.88   4 1.88   4 1.95
   2  0.253  0.747  0.022-   4 1.88   3 1.88   3 1.88   3 1.95
   3  0.686  0.314  0.921-   1 1.88   2 1.88   2 1.88   2 1.95
   4  0.222  0.778  0.421-   2 1.88   1 1.88   1 1.88   1 1.95
 

IMPORTANT INFORMATION: All symmetrisations will be switched off!
NOSYMM: (Re-)initialisation of all symmetry stuff for point group C_1.


----------------------------------------------------------------------------------------

                                     Primitive cell                                     

  volume of cell :      36.7699

  direct lattice vectors                    reciprocal lattice vectors
     1.797939366 -2.180868281 -0.000011675     0.278096141 -0.229266483  0.000001078
     1.797939367  2.180868282  0.000011686     0.278096141  0.229266483 -0.000001079
     0.000000012  0.000022053  4.688757833    -0.000000001 -0.000001142  0.213276103

  length of vectors
     2.826441654  2.826441655  4.688757833     0.360417236  0.360417236  0.213276103

  position of ions in fractional coordinates (direct lattice)
     0.654511761  0.345488587  0.521891659
     0.253475793  0.746524559  0.021893695
     0.686252555  0.313747791  0.921404879
     0.221725240  0.778275110  0.421404467

  ion indices of the primitive-cell ions
   primitive index   ion index
                 1           1
                 2           2
                 3           3
                 4           4

----------------------------------------------------------------------------------------

 
 
 KPOINTS: KPOINTS created by Atomic Simulation Env

Automatic generation of k-mesh.
 Grid dimensions read from file:
 generate k-points for:    8    8    6

 Generating k-lattice:

  Cartesian coordinates                     Fractional coordinates (reciprocal lattice)
     0.034762018 -0.028658310  0.000000135     0.125000000  0.000000000 -0.000000000
     0.034762018  0.028658310 -0.000000135     0.000000000  0.125000000 -0.000000000
    -0.000000000 -0.000000190  0.035546017    -0.000000000  0.000000000  0.166666667

  Length of vectors
     0.045052154  0.045052154  0.035546017

  Shift w.r.t. Gamma in fractional coordinates (k-lattice)
     0.000000000  0.000000000  0.000000000

 
 Subroutine IBZKPT returns following result:
 ===========================================
 
 Found    384 irreducible k-points:
 
 Following reciprocal coordinates:
            Coordinates               Weight
  0.000000  0.000000  0.000000      1.000000
  0.125000  0.000000  0.000000      1.000000
  0.250000  0.000000  0.000000      1.000000
  0.375000  0.000000 -0.000000      1.000000
  0.500000  0.000000 -0.000000      1.000000
 -0.375000 -0.000000  0.000000      1.000000
 -0.250000 -0.000000 -0.000000      1.000000
 -0.125000 -0.000000  0.000000      1.000000
  0.000000  0.125000  0.000000      1.000000
  0.125000  0.125000  0.000000      1.000000
  0.250000  0.125000 -0.000000      1.000000
  0.375000  0.125000 -0.000000      1.000000
  0.500000  0.125000 -0.000000      1.000000
 -0.375000  0.125000 -0.000000      1.000000
 -0.250000  0.125000  0.000000      1.000000
 -0.125000  0.125000  0.000000      1.000000
  0.000000  0.250000  0.000000      1.000000
  0.125000  0.250000 -0.000000      1.000000
  0.250000  0.250000 -0.000000      1.000000
  0.375000  0.250000 -0.000000      1.000000
  0.500000  0.250000  0.000000      1.000000
 -0.375000  0.250000  0.000000      1.000000
 -0.250000  0.250000  0.000000      1.000000
 -0.125000  0.250000 -0.000000      1.000000
  0.000000  0.375000 -0.000000      1.000000
  0.125000  0.375000 -0.000000      1.000000
  0.250000  0.375000 -0.000000      1.000000
  0.375000  0.375000  0.000000      1.000000
  0.500000  0.375000  0.000000      1.000000
 -0.375000  0.375000  0.000000      1.000000
 -0.250000  0.375000 -0.000000      1.000000
 -0.125000  0.375000  0.000000      1.000000
  0.000000  0.500000 -0.000000      1.000000
  0.125000  0.500000 -0.000000      1.000000
  0.250000  0.500000  0.000000      1.000000
  0.375000  0.500000  0.000000      1.000000
  0.500000  0.500000  0.000000      1.000000
 -0.375000  0.500000 -0.000000      1.000000
 -0.250000  0.500000  0.000000      1.000000
 -0.125000  0.500000 -0.000000      1.000000
 -0.000000 -0.375000  0.000000      1.000000
  0.125000 -0.375000 -0.000000      1.000000
  0.250000 -0.375000  0.000000      1.000000
  0.375000 -0.375000  0.000000      1.000000
  0.500000 -0.375000 -0.000000      1.000000
 -0.375000 -0.375000 -0.000000      1.000000
 -0.250000 -0.375000  0.000000      1.000000
 -0.125000 -0.375000  0.000000      1.000000
 -0.000000 -0.250000 -0.000000      1.000000
  0.125000 -0.250000  0.000000      1.000000
  0.250000 -0.250000  0.000000      1.000000
  0.375000 -0.250000 -0.000000      1.000000
  0.500000 -0.250000  0.000000      1.000000
 -0.375000 -0.250000  0.000000      1.000000
 -0.250000 -0.250000  0.000000      1.000000
 -0.125000 -0.250000  0.000000      1.000000
 -0.000000 -0.125000  0.000000      1.000000
  0.125000 -0.125000  0.000000      1.000000
  0.250000 -0.125000 -0.000000      1.000000
  0.375000 -0.125000  0.000000      1.000000
  0.500000 -0.125000 -0.000000      1.000000
 -0.375000 -0.125000  0.000000      1.000000
 -0.250000 -0.125000  0.000000      1.000000
 -0.125000 -0.125000  0.000000      1.000000
 -0.000000  0.000000  0.166667      1.000000
  0.125000  0.000000  0.166667      1.000000
  0.250000  0.000000  0.166667      1.000000
  0.375000  0.000000  0.166667      1.000000
  0.500000  0.000000  0.166667      1.000000
 -0.375000 -0.000000  0.166667      1.000000
 -0.250000 -0.000000  0.166667      1.000000
 -0.125000 -0.000000  0.166667      1.000000
  0.000000  0.125000  0.166667      1.000000
  0.125000  0.125000  0.166667      1.000000
  0.250000  0.125000  0.166667      1.000000
  0.375000  0.125000  0.166667      1.000000
  0.500000  0.125000  0.166667      1.000000
 -0.375000  0.125000  0.166667      1.000000
 -0.250000  0.125000  0.166667      1.000000
 -0.125000  0.125000  0.166667      1.000000
  0.000000  0.250000  0.166667      1.000000
  0.125000  0.250000  0.166667      1.000000
  0.250000  0.250000  0.166667      1.000000
  0.375000  0.250000  0.166667      1.000000
  0.500000  0.250000  0.166667      1.000000
 -0.375000  0.250000  0.166667      1.000000
 -0.250000  0.250000  0.166667      1.000000
 -0.125000  0.250000  0.166667      1.000000
  0.000000  0.375000  0.166667      1.000000
  0.125000  0.375000  0.166667      1.000000
  0.250000  0.375000  0.166667      1.000000
  0.375000  0.375000  0.166667      1.000000
  0.500000  0.375000  0.166667      1.000000
 -0.375000  0.375000  0.166667      1.000000
 -0.250000  0.375000  0.166667      1.000000
 -0.125000  0.375000  0.166667      1.000000
  0.000000  0.500000  0.166667      1.000000
  0.125000  0.500000  0.166667      1.000000
  0.250000  0.500000  0.166667      1.000000
  0.375000  0.500000  0.166667      1.000000
  0.500000  0.500000  0.166667      1.000000
 -0.375000  0.500000  0.166667      1.000000
 -0.250000  0.500000  0.166667      1.000000
 -0.125000  0.500000  0.166667      1.000000
 -0.000000 -0.375000  0.166667      1.000000
  0.125000 -0.375000  0.166667      1.000000
  0.250000 -0.375000  0.166667      1.000000
  0.375000 -0.375000  0.166667      1.000000
  0.500000 -0.375000  0.166667      1.000000
 -0.375000 -0.375000  0.166667      1.000000
 -0.250000 -0.375000  0.166667      1.000000
 -0.125000 -0.375000  0.166667      1.000000
 -0.000000 -0.250000  0.166667      1.000000
  0.125000 -0.250000  0.166667      1.000000
  0.250000 -0.250000  0.166667      1.000000
  0.375000 -0.250000  0.166667      1.000000
  0.500000 -0.250000  0.166667      1.000000
 -0.375000 -0.250000  0.166667      1.000000
 -0.250000 -0.250000  0.166667      1.000000
 -0.125000 -0.250000  0.166667      1.000000
 -0.000000 -0.125000  0.166667      1.000000
  0.125000 -0.125000  0.166667      1.000000
  0.250000 -0.125000  0.166667      1.000000
  0.375000 -0.125000  0.166667      1.000000
  0.500000 -0.125000  0.166667      1.000000
 -0.375000 -0.125000  0.166667      1.000000
 -0.250000 -0.125000  0.166667      1.000000
 -0.125000 -0.125000  0.166667      1.000000
 -0.000000  0.000000  0.333333      1.000000
  0.125000  0.000000  0.333333      1.000000
  0.250000  0.000000  0.333333      1.000000
  0.375000  0.000000  0.333333      1.000000
  0.500000  0.000000  0.333333      1.000000
 -0.375000 -0.000000  0.333333      1.000000
 -0.250000 -0.000000  0.333333      1.000000
 -0.125000  0.000000  0.333333      1.000000
  0.000000  0.125000  0.333333      1.000000
  0.125000  0.125000  0.333333      1.000000
  0.250000  0.125000  0.333333      1.000000
  0.375000  0.125000  0.333333      1.000000
  0.500000  0.125000  0.333333      1.000000
 -0.375000  0.125000  0.333333      1.000000
 -0.250000  0.125000  0.333333      1.000000
 -0.125000  0.125000  0.333333      1.000000
  0.000000  0.250000  0.333333      1.000000
  0.125000  0.250000  0.333333      1.000000
  0.250000  0.250000  0.333333      1.000000
  0.375000  0.250000  0.333333      1.000000
  0.500000  0.250000  0.333333      1.000000
 -0.375000  0.250000  0.333333      1.000000
 -0.250000  0.250000  0.333333      1.000000
 -0.125000  0.250000  0.333333      1.000000
 -0.000000  0.375000  0.333333      1.000000
  0.125000  0.375000  0.333333      1.000000
  0.250000  0.375000  0.333333      1.000000
  0.375000  0.375000  0.333333      1.000000
  0.500000  0.375000  0.333333      1.000000
 -0.375000  0.375000  0.333333      1.000000
 -0.250000  0.375000  0.333333      1.000000
 -0.125000  0.375000  0.333333      1.000000
  0.000000  0.500000  0.333333      1.000000
  0.125000  0.500000  0.333333      1.000000
  0.250000  0.500000  0.333333      1.000000
  0.375000  0.500000  0.333333      1.000000
  0.500000  0.500000  0.333333      1.000000
 -0.375000  0.500000  0.333333      1.000000
 -0.250000  0.500000  0.333333      1.000000
 -0.125000  0.500000  0.333333      1.000000
 -0.000000 -0.375000  0.333333      1.000000
  0.125000 -0.375000  0.333333      1.000000
  0.250000 -0.375000  0.333333      1.000000
  0.375000 -0.375000  0.333333      1.000000
  0.500000 -0.375000  0.333333      1.000000
 -0.375000 -0.375000  0.333333      1.000000
 -0.250000 -0.375000  0.333333      1.000000
 -0.125000 -0.375000  0.333333      1.000000
 -0.000000 -0.250000  0.333333      1.000000
  0.125000 -0.250000  0.333333      1.000000
  0.250000 -0.250000  0.333333      1.000000
  0.375000 -0.250000  0.333333      1.000000
  0.500000 -0.250000  0.333333      1.000000
 -0.375000 -0.250000  0.333333      1.000000
 -0.250000 -0.250000  0.333333      1.000000
 -0.125000 -0.250000  0.333333      1.000000
 -0.000000 -0.125000  0.333333      1.000000
  0.125000 -0.125000  0.333333      1.000000
  0.250000 -0.125000  0.333333      1.000000
  0.375000 -0.125000  0.333333      1.000000
  0.500000 -0.125000  0.333333      1.000000
 -0.375000 -0.125000  0.333333      1.000000
 -0.250000 -0.125000  0.333333      1.000000
 -0.125000 -0.125000  0.333333      1.000000
 -0.000000  0.000000  0.500000      1.000000
  0.125000 -0.000000  0.500000      1.000000
  0.250000  0.000000  0.500000      1.000000
  0.375000  0.000000  0.500000      1.000000
  0.500000  0.000000  0.500000      1.000000
 -0.375000 -0.000000  0.500000      1.000000
 -0.250000 -0.000000  0.500000      1.000000
 -0.125000 -0.000000  0.500000      1.000000
  0.000000  0.125000  0.500000      1.000000
  0.125000  0.125000  0.500000      1.000000
  0.250000  0.125000  0.500000      1.000000
  0.375000  0.125000  0.500000      1.000000
  0.500000  0.125000  0.500000      1.000000
 -0.375000  0.125000  0.500000      1.000000
 -0.250000  0.125000  0.500000      1.000000
 -0.125000  0.125000  0.500000      1.000000
  0.000000  0.250000  0.500000      1.000000
  0.125000  0.250000  0.500000      1.000000
  0.250000  0.250000  0.500000      1.000000
  0.375000  0.250000  0.500000      1.000000
  0.500000  0.250000  0.500000      1.000000
 -0.375000  0.250000  0.500000      1.000000
 -0.250000  0.250000  0.500000      1.000000
 -0.125000  0.250000  0.500000      1.000000
  0.000000  0.375000  0.500000      1.000000
  0.125000  0.375000  0.500000      1.000000
  0.250000  0.375000  0.500000      1.000000
  0.375000  0.375000  0.500000      1.000000
  0.500000  0.375000  0.500000      1.000000
 -0.375000  0.375000  0.500000      1.000000
 -0.250000  0.375000  0.500000      1.000000
 -0.125000  0.375000  0.500000      1.000000
  0.000000  0.500000  0.500000      1.000000
  0.125000  0.500000  0.500000      1.000000
  0.250000  0.500000  0.500000      1.000000
  0.375000  0.500000  0.500000      1.000000
  0.500000  0.500000  0.500000      1.000000
 -0.375000  0.500000  0.500000      1.000000
 -0.250000  0.500000  0.500000      1.000000
 -0.125000  0.500000  0.500000      1.000000
  0.000000 -0.375000  0.500000      1.000000
  0.125000 -0.375000  0.500000      1.000000
  0.250000 -0.375000  0.500000      1.000000
  0.375000 -0.375000  0.500000      1.000000
  0.500000 -0.375000  0.500000      1.000000
 -0.375000 -0.375000  0.500000      1.000000
 -0.250000 -0.375000  0.500000      1.000000
 -0.125000 -0.375000  0.500000      1.000000
 -0.000000 -0.250000  0.500000      1.000000
  0.125000 -0.250000  0.500000      1.000000
  0.250000 -0.250000  0.500000      1.000000
  0.375000 -0.250000  0.500000      1.000000
  0.500000 -0.250000  0.500000      1.000000
 -0.375000 -0.250000  0.500000      1.000000
 -0.250000 -0.250000  0.500000      1.000000
 -0.125000 -0.250000  0.500000      1.000000
 -0.000000 -0.125000  0.500000      1.000000
  0.125000 -0.125000  0.500000      1.000000
  0.250000 -0.125000  0.500000      1.000000
  0.375000 -0.125000  0.500000      1.000000
  0.500000 -0.125000  0.500000      1.000000
 -0.375000 -0.125000  0.500000      1.000000
 -0.250000 -0.125000  0.500000      1.000000
 -0.125000 -0.125000  0.500000      1.000000
  0.000000 -0.000000 -0.333333      1.000000
  0.125000 -0.000000 -0.333333      1.000000
  0.250000  0.000000 -0.333333      1.000000
  0.375000  0.000000 -0.333333      1.000000
  0.500000  0.000000 -0.333333      1.000000
 -0.375000 -0.000000 -0.333333      1.000000
 -0.250000 -0.000000 -0.333333      1.000000
 -0.125000 -0.000000 -0.333333      1.000000
  0.000000  0.125000 -0.333333      1.000000
  0.125000  0.125000 -0.333333      1.000000
  0.250000  0.125000 -0.333333      1.000000
  0.375000  0.125000 -0.333333      1.000000
  0.500000  0.125000 -0.333333      1.000000
 -0.375000  0.125000 -0.333333      1.000000
 -0.250000  0.125000 -0.333333      1.000000
 -0.125000  0.125000 -0.333333      1.000000
  0.000000  0.250000 -0.333333      1.000000
  0.125000  0.250000 -0.333333      1.000000
  0.250000  0.250000 -0.333333      1.000000
  0.375000  0.250000 -0.333333      1.000000
  0.500000  0.250000 -0.333333      1.000000
 -0.375000  0.250000 -0.333333      1.000000
 -0.250000  0.250000 -0.333333      1.000000
 -0.125000  0.250000 -0.333333      1.000000
  0.000000  0.375000 -0.333333      1.000000
  0.125000  0.375000 -0.333333      1.000000
  0.250000  0.375000 -0.333333      1.000000
  0.375000  0.375000 -0.333333      1.000000
  0.500000  0.375000 -0.333333      1.000000
 -0.375000  0.375000 -0.333333      1.000000
 -0.250000  0.375000 -0.333333      1.000000
 -0.125000  0.375000 -0.333333      1.000000
  0.000000  0.500000 -0.333333      1.000000
  0.125000  0.500000 -0.333333      1.000000
  0.250000  0.500000 -0.333333      1.000000
  0.375000  0.500000 -0.333333      1.000000
  0.500000  0.500000 -0.333333      1.000000
 -0.375000  0.500000 -0.333333      1.000000
 -0.250000  0.500000 -0.333333      1.000000
 -0.125000  0.500000 -0.333333      1.000000
  0.000000 -0.375000 -0.333333      1.000000
  0.125000 -0.375000 -0.333333      1.000000
  0.250000 -0.375000 -0.333333      1.000000
  0.375000 -0.375000 -0.333333      1.000000
  0.500000 -0.375000 -0.333333      1.000000
 -0.375000 -0.375000 -0.333333      1.000000
 -0.250000 -0.375000 -0.333333      1.000000
 -0.125000 -0.375000 -0.333333      1.000000
 -0.000000 -0.250000 -0.333333      1.000000
  0.125000 -0.250000 -0.333333      1.000000
  0.250000 -0.250000 -0.333333      1.000000
  0.375000 -0.250000 -0.333333      1.000000
  0.500000 -0.250000 -0.333333      1.000000
 -0.375000 -0.250000 -0.333333      1.000000
 -0.250000 -0.250000 -0.333333      1.000000
 -0.125000 -0.250000 -0.333333      1.000000
 -0.000000 -0.125000 -0.333333      1.000000
  0.125000 -0.125000 -0.333333      1.000000
  0.250000 -0.125000 -0.333333      1.000000
  0.375000 -0.125000 -0.333333      1.000000
  0.500000 -0.125000 -0.333333      1.000000
 -0.375000 -0.125000 -0.333333      1.000000
 -0.250000 -0.125000 -0.333333      1.000000
 -0.125000 -0.125000 -0.333333      1.000000
  0.000000 -0.000000 -0.166667      1.000000
  0.125000  0.000000 -0.166667      1.000000
  0.250000  0.000000 -0.166667      1.000000
  0.375000  0.000000 -0.166667      1.000000
  0.500000  0.000000 -0.166667      1.000000
 -0.375000 -0.000000 -0.166667      1.000000
 -0.250000 -0.000000 -0.166667      1.000000
 -0.125000 -0.000000 -0.166667      1.000000
  0.000000  0.125000 -0.166667      1.000000
  0.125000  0.125000 -0.166667      1.000000
  0.250000  0.125000 -0.166667      1.000000
  0.375000  0.125000 -0.166667      1.000000
  0.500000  0.125000 -0.166667      1.000000
 -0.375000  0.125000 -0.166667      1.000000
 -0.250000  0.125000 -0.166667      1.000000
 -0.125000  0.125000 -0.166667      1.000000
  0.000000  0.250000 -0.166667      1.000000
  0.125000  0.250000 -0.166667      1.000000
  0.250000  0.250000 -0.166667      1.000000
  0.375000  0.250000 -0.166667      1.000000
  0.500000  0.250000 -0.166667      1.000000
 -0.375000  0.250000 -0.166667      1.000000
 -0.250000  0.250000 -0.166667      1.000000
 -0.125000  0.250000 -0.166667      1.000000
  0.000000  0.375000 -0.166667      1.000000
  0.125000  0.375000 -0.166667      1.000000
  0.250000  0.375000 -0.166667      1.000000
  0.375000  0.375000 -0.166667      1.000000
  0.500000  0.375000 -0.166667      1.000000
 -0.375000  0.375000 -0.166667      1.000000
 -0.250000  0.375000 -0.166667      1.000000
 -0.125000  0.375000 -0.166667      1.000000
  0.000000  0.500000 -0.166667      1.000000
  0.125000  0.500000 -0.166667      1.000000
  0.250000  0.500000 -0.166667      1.000000
  0.375000  0.500000 -0.166667      1.000000
  0.500000  0.500000 -0.166667      1.000000
 -0.375000  0.500000 -0.166667      1.000000
 -0.250000  0.500000 -0.166667      1.000000
 -0.125000  0.500000 -0.166667      1.000000
 -0.000000 -0.375000 -0.166667      1.000000
  0.125000 -0.375000 -0.166667      1.000000
  0.250000 -0.375000 -0.166667      1.000000
  0.375000 -0.375000 -0.166667      1.000000
  0.500000 -0.375000 -0.166667      1.000000
 -0.375000 -0.375000 -0.166667      1.000000
 -0.250000 -0.375000 -0.166667      1.000000
 -0.125000 -0.375000 -0.166667      1.000000
 -0.000000 -0.250000 -0.166667      1.000000
  0.125000 -0.250000 -0.166667      1.000000
  0.250000 -0.250000 -0.166667      1.000000
  0.375000 -0.250000 -0.166667      1.000000
  0.500000 -0.250000 -0.166667      1.000000
 -0.375000 -0.250000 -0.166667      1.000000
 -0.250000 -0.250000 -0.166667      1.000000
 -0.125000 -0.250000 -0.166667      1.000000
 -0.000000 -0.125000 -0.166667      1.000000
  0.125000 -0.125000 -0.166667      1.000000
  0.250000 -0.125000 -0.166667      1.000000
  0.375000 -0.125000 -0.166667      1.000000
  0.500000 -0.125000 -0.166667      1.000000
 -0.375000 -0.125000 -0.166667      1.000000
 -0.250000 -0.125000 -0.166667      1.000000
 -0.125000 -0.125000 -0.166667      1.000000
 
 Following cartesian coordinates:
            Coordinates               Weight
  0.000000  0.000000  0.000000      1.000000
  0.034762 -0.028658  0.000000      1.000000
  0.069524 -0.057317  0.000000      1.000000
  0.104286 -0.085975  0.000000      1.000000
  0.139048 -0.114633  0.000001      1.000000
 -0.104286  0.085975 -0.000000      1.000000
 -0.069524  0.057317 -0.000000      1.000000
 -0.034762  0.028658 -0.000000      1.000000
  0.034762  0.028658 -0.000000      1.000000
  0.069524 -0.000000 -0.000000      1.000000
  0.104286 -0.028658  0.000000      1.000000
  0.139048 -0.057317  0.000000      1.000000
  0.173810 -0.085975  0.000000      1.000000
 -0.069524  0.114633 -0.000001      1.000000
 -0.034762  0.085975 -0.000000      1.000000
 -0.000000  0.057317 -0.000000      1.000000
  0.069524  0.057317 -0.000000      1.000000
  0.104286  0.028658 -0.000000      1.000000
  0.139048 -0.000000 -0.000000      1.000000
  0.173810 -0.028658  0.000000      1.000000
  0.208572 -0.057317  0.000000      1.000000
 -0.034762  0.143292 -0.000001      1.000000
 -0.000000  0.114633 -0.000001      1.000000
  0.034762  0.085975 -0.000000      1.000000
  0.104286  0.085975 -0.000000      1.000000
  0.139048  0.057317 -0.000000      1.000000
  0.173810  0.028658 -0.000000      1.000000
  0.208572 -0.000000 -0.000000      1.000000
  0.243334 -0.028658  0.000000      1.000000
 -0.000000  0.171950 -0.000001      1.000000
  0.034762  0.143292 -0.000001      1.000000
  0.069524  0.114633 -0.000001      1.000000
  0.139048  0.114633 -0.000001      1.000000
  0.173810  0.085975 -0.000000      1.000000
  0.208572  0.057317 -0.000000      1.000000
  0.243334  0.028658 -0.000000      1.000000
  0.278096 -0.000000 -0.000000      1.000000
  0.034762  0.200608 -0.000001      1.000000
  0.069524  0.171950 -0.000001      1.000000
  0.104286  0.143292 -0.000001      1.000000
 -0.104286 -0.085975  0.000000      1.000000
 -0.069524 -0.114633  0.000001      1.000000
 -0.034762 -0.143292  0.000001      1.000000
  0.000000 -0.171950  0.000001      1.000000
  0.034762 -0.200608  0.000001      1.000000
 -0.208572  0.000000  0.000000      1.000000
 -0.173810 -0.028658  0.000000      1.000000
 -0.139048 -0.057317  0.000000      1.000000
 -0.069524 -0.057317  0.000000      1.000000
 -0.034762 -0.085975  0.000000      1.000000
  0.000000 -0.114633  0.000001      1.000000
  0.034762 -0.143292  0.000001      1.000000
  0.069524 -0.171950  0.000001      1.000000
 -0.173810  0.028658 -0.000000      1.000000
 -0.139048  0.000000  0.000000      1.000000
 -0.104286 -0.028658  0.000000      1.000000
 -0.034762 -0.028658  0.000000      1.000000
  0.000000 -0.057317  0.000000      1.000000
  0.034762 -0.085975  0.000000      1.000000
  0.069524 -0.114633  0.000001      1.000000
  0.104286 -0.143292  0.000001      1.000000
 -0.139048  0.057317 -0.000000      1.000000
 -0.104286  0.028658 -0.000000      1.000000
 -0.069524  0.000000  0.000000      1.000000
 -0.000000 -0.000000  0.035546      1.000000
  0.034762 -0.028659  0.035546      1.000000
  0.069524 -0.057317  0.035546      1.000000
  0.104286 -0.085975  0.035546      1.000000
  0.139048 -0.114633  0.035547      1.000000
 -0.104286  0.085975  0.035546      1.000000
 -0.069524  0.057316  0.035546      1.000000
 -0.034762  0.028658  0.035546      1.000000
  0.034762  0.028658  0.035546      1.000000
  0.069524 -0.000000  0.035546      1.000000
  0.104286 -0.028659  0.035546      1.000000
  0.139048 -0.057317  0.035546      1.000000
  0.173810 -0.085975  0.035546      1.000000
 -0.069524  0.114633  0.035545      1.000000
 -0.034762  0.085975  0.035546      1.000000
 -0.000000  0.057316  0.035546      1.000000
  0.069524  0.057316  0.035546      1.000000
  0.104286  0.028658  0.035546      1.000000
  0.139048 -0.000000  0.035546      1.000000
  0.173810 -0.028659  0.035546      1.000000
  0.208572 -0.057317  0.035546      1.000000
 -0.034762  0.143291  0.035545      1.000000
 -0.000000  0.114633  0.035545      1.000000
  0.034762  0.085975  0.035546      1.000000
  0.104286  0.085975  0.035546      1.000000
  0.139048  0.057316  0.035546      1.000000
  0.173810  0.028658  0.035546      1.000000
  0.208572 -0.000000  0.035546      1.000000
  0.243334 -0.028659  0.035546      1.000000
 -0.000000  0.171950  0.035545      1.000000
  0.034762  0.143291  0.035545      1.000000
  0.069524  0.114633  0.035545      1.000000
  0.139048  0.114633  0.035545      1.000000
  0.173810  0.085975  0.035546      1.000000
  0.208572  0.057316  0.035546      1.000000
  0.243334  0.028658  0.035546      1.000000
  0.278096 -0.000000  0.035546      1.000000
  0.034762  0.200608  0.035545      1.000000
  0.069524  0.171950  0.035545      1.000000
  0.104286  0.143291  0.035545      1.000000
 -0.104286 -0.085975  0.035546      1.000000
 -0.069524 -0.114633  0.035547      1.000000
 -0.034762 -0.143292  0.035547      1.000000
 -0.000000 -0.171950  0.035547      1.000000
  0.034762 -0.200608  0.035547      1.000000
 -0.208572 -0.000000  0.035546      1.000000
 -0.173810 -0.028659  0.035546      1.000000
 -0.139048 -0.057317  0.035546      1.000000
 -0.069524 -0.057317  0.035546      1.000000
 -0.034762 -0.085975  0.035546      1.000000
 -0.000000 -0.114633  0.035547      1.000000
  0.034762 -0.143292  0.035547      1.000000
  0.069524 -0.171950  0.035547      1.000000
 -0.173810  0.028658  0.035546      1.000000
 -0.139048 -0.000000  0.035546      1.000000
 -0.104286 -0.028659  0.035546      1.000000
 -0.034762 -0.028659  0.035546      1.000000
 -0.000000 -0.057317  0.035546      1.000000
  0.034762 -0.085975  0.035546      1.000000
  0.069524 -0.114633  0.035547      1.000000
  0.104286 -0.143292  0.035547      1.000000
 -0.139048  0.057316  0.035546      1.000000
 -0.104286  0.028658  0.035546      1.000000
 -0.069524 -0.000000  0.035546      1.000000
 -0.000000 -0.000000  0.071092      1.000000
  0.034762 -0.028659  0.071092      1.000000
  0.069524 -0.057317  0.071092      1.000000
  0.104286 -0.085975  0.071092      1.000000
  0.139048 -0.114634  0.071093      1.000000
 -0.104286  0.085975  0.071092      1.000000
 -0.069524  0.057316  0.071092      1.000000
 -0.034762  0.028658  0.071092      1.000000
  0.034762  0.028658  0.071092      1.000000
  0.069524 -0.000000  0.071092      1.000000
  0.104286 -0.028659  0.071092      1.000000
  0.139048 -0.057317  0.071092      1.000000
  0.173810 -0.085975  0.071092      1.000000
 -0.069524  0.114633  0.071091      1.000000
 -0.034762  0.085975  0.071092      1.000000
 -0.000000  0.057316  0.071092      1.000000
  0.069524  0.057316  0.071092      1.000000
  0.104286  0.028658  0.071092      1.000000
  0.139048 -0.000000  0.071092      1.000000
  0.173810 -0.028659  0.071092      1.000000
  0.208572 -0.057317  0.071092      1.000000
 -0.034762  0.143291  0.071091      1.000000
 -0.000000  0.114633  0.071091      1.000000
  0.034762  0.085975  0.071092      1.000000
  0.104286  0.085975  0.071092      1.000000
  0.139048  0.057316  0.071092      1.000000
  0.173810  0.028658  0.071092      1.000000
  0.208572 -0.000000  0.071092      1.000000
  0.243334 -0.028659  0.071092      1.000000
 -0.000000  0.171949  0.071091      1.000000
  0.034762  0.143291  0.071091      1.000000
  0.069524  0.114633  0.071091      1.000000
  0.139048  0.114633  0.071091      1.000000
  0.173810  0.085975  0.071092      1.000000
  0.208572  0.057316  0.071092      1.000000
  0.243334  0.028658  0.071092      1.000000
  0.278096 -0.000000  0.071092      1.000000
  0.034762  0.200608  0.071091      1.000000
  0.069524  0.171949  0.071091      1.000000
  0.104286  0.143291  0.071091      1.000000
 -0.104286 -0.085975  0.071092      1.000000
 -0.069524 -0.114634  0.071093      1.000000
 -0.034762 -0.143292  0.071093      1.000000
 -0.000000 -0.171950  0.071093      1.000000
  0.034762 -0.200609  0.071093      1.000000
 -0.208572 -0.000000  0.071092      1.000000
 -0.173810 -0.028659  0.071092      1.000000
 -0.139048 -0.057317  0.071092      1.000000
 -0.069524 -0.057317  0.071092      1.000000
 -0.034762 -0.085975  0.071092      1.000000
 -0.000000 -0.114634  0.071093      1.000000
  0.034762 -0.143292  0.071093      1.000000
  0.069524 -0.171950  0.071093      1.000000
 -0.173810  0.028658  0.071092      1.000000
 -0.139048 -0.000000  0.071092      1.000000
 -0.104286 -0.028659  0.071092      1.000000
 -0.034762 -0.028659  0.071092      1.000000
 -0.000000 -0.057317  0.071092      1.000000
  0.034762 -0.085975  0.071092      1.000000
  0.069524 -0.114634  0.071093      1.000000
  0.104286 -0.143292  0.071093      1.000000
 -0.139048  0.057316  0.071092      1.000000
 -0.104286  0.028658  0.071092      1.000000
 -0.069524 -0.000000  0.071092      1.000000
 -0.000000 -0.000001  0.106638      1.000000
  0.034762 -0.028659  0.106638      1.000000
  0.069524 -0.057317  0.106638      1.000000
  0.104286 -0.085976  0.106638      1.000000
  0.139048 -0.114634  0.106639      1.000000
 -0.104286  0.085974  0.106638      1.000000
 -0.069524  0.057316  0.106638      1.000000
 -0.034762  0.028658  0.106638      1.000000
  0.034762  0.028658  0.106638      1.000000
  0.069524 -0.000001  0.106638      1.000000
  0.104286 -0.028659  0.106638      1.000000
  0.139048 -0.057317  0.106638      1.000000
  0.173810 -0.085976  0.106638      1.000000
 -0.069524  0.114633  0.106638      1.000000
 -0.034762  0.085974  0.106638      1.000000
 -0.000000  0.057316  0.106638      1.000000
  0.069524  0.057316  0.106638      1.000000
  0.104286  0.028658  0.106638      1.000000
  0.139048 -0.000001  0.106638      1.000000
  0.173810 -0.028659  0.106638      1.000000
  0.208572 -0.057317  0.106638      1.000000
 -0.034762  0.143291  0.106637      1.000000
 -0.000000  0.114633  0.106638      1.000000
  0.034762  0.085974  0.106638      1.000000
  0.104286  0.085974  0.106638      1.000000
  0.139048  0.057316  0.106638      1.000000
  0.173810  0.028658  0.106638      1.000000
  0.208572 -0.000001  0.106638      1.000000
  0.243334 -0.028659  0.106638      1.000000
 -0.000000  0.171949  0.106637      1.000000
  0.034762  0.143291  0.106637      1.000000
  0.069524  0.114633  0.106638      1.000000
  0.139048  0.114633  0.106638      1.000000
  0.173810  0.085974  0.106638      1.000000
  0.208572  0.057316  0.106638      1.000000
  0.243334  0.028658  0.106638      1.000000
  0.278096 -0.000001  0.106638      1.000000
  0.034762  0.200608  0.106637      1.000000
  0.069524  0.171949  0.106637      1.000000
  0.104286  0.143291  0.106637      1.000000
 -0.104286 -0.085976  0.106638      1.000000
 -0.069524 -0.114634  0.106639      1.000000
 -0.034762 -0.143292  0.106639      1.000000
 -0.000000 -0.171950  0.106639      1.000000
  0.034762 -0.200609  0.106639      1.000000
 -0.208572 -0.000001  0.106638      1.000000
 -0.173810 -0.028659  0.106638      1.000000
 -0.139048 -0.057317  0.106638      1.000000
 -0.069524 -0.057317  0.106638      1.000000
 -0.034762 -0.085976  0.106638      1.000000
 -0.000000 -0.114634  0.106639      1.000000
  0.034762 -0.143292  0.106639      1.000000
  0.069524 -0.171950  0.106639      1.000000
 -0.173810  0.028658  0.106638      1.000000
 -0.139048 -0.000001  0.106638      1.000000
 -0.104286 -0.028659  0.106638      1.000000
 -0.034762 -0.028659  0.106638      1.000000
 -0.000000 -0.057317  0.106638      1.000000
  0.034762 -0.085976  0.106638      1.000000
  0.069524 -0.114634  0.106639      1.000000
  0.104286 -0.143292  0.106639      1.000000
 -0.139048  0.057316  0.106638      1.000000
 -0.104286  0.028658  0.106638      1.000000
 -0.069524 -0.000001  0.106638      1.000000
  0.000000  0.000000 -0.071092      1.000000
  0.034762 -0.028658 -0.071092      1.000000
  0.069524 -0.057316 -0.071092      1.000000
  0.104286 -0.085975 -0.071092      1.000000
  0.139048 -0.114633 -0.071091      1.000000
 -0.104286  0.085975 -0.071092      1.000000
 -0.069524  0.057317 -0.071092      1.000000
 -0.034762  0.028659 -0.071092      1.000000
  0.034762  0.028659 -0.071092      1.000000
  0.069524  0.000000 -0.071092      1.000000
  0.104286 -0.028658 -0.071092      1.000000
  0.139048 -0.057316 -0.071092      1.000000
  0.173810 -0.085975 -0.071092      1.000000
 -0.069524  0.114634 -0.071093      1.000000
 -0.034762  0.085975 -0.071092      1.000000
  0.000000  0.057317 -0.071092      1.000000
  0.069524  0.057317 -0.071092      1.000000
  0.104286  0.028659 -0.071092      1.000000
  0.139048  0.000000 -0.071092      1.000000
  0.173810 -0.028658 -0.071092      1.000000
  0.208572 -0.057316 -0.071092      1.000000
 -0.034762  0.143292 -0.071093      1.000000
  0.000000  0.114634 -0.071093      1.000000
  0.034762  0.085975 -0.071092      1.000000
  0.104286  0.085975 -0.071092      1.000000
  0.139048  0.057317 -0.071092      1.000000
  0.173810  0.028659 -0.071092      1.000000
  0.208572  0.000000 -0.071092      1.000000
  0.243334 -0.028658 -0.071092      1.000000
  0.000000  0.171950 -0.071093      1.000000
  0.034762  0.143292 -0.071093      1.000000
  0.069524  0.114634 -0.071093      1.000000
  0.139048  0.114634 -0.071093      1.000000
  0.173810  0.085975 -0.071092      1.000000
  0.208572  0.057317 -0.071092      1.000000
  0.243334  0.028659 -0.071092      1.000000
  0.278096  0.000000 -0.071092      1.000000
  0.034762  0.200609 -0.071093      1.000000
  0.069524  0.171950 -0.071093      1.000000
  0.104286  0.143292 -0.071093      1.000000
 -0.104286 -0.085975 -0.071092      1.000000
 -0.069524 -0.114633 -0.071091      1.000000
 -0.034762 -0.143291 -0.071091      1.000000
  0.000000 -0.171949 -0.071091      1.000000
  0.034762 -0.200608 -0.071091      1.000000
 -0.208572  0.000000 -0.071092      1.000000
 -0.173810 -0.028658 -0.071092      1.000000
 -0.139048 -0.057316 -0.071092      1.000000
 -0.069524 -0.057316 -0.071092      1.000000
 -0.034762 -0.085975 -0.071092      1.000000
  0.000000 -0.114633 -0.071091      1.000000
  0.034762 -0.143291 -0.071091      1.000000
  0.069524 -0.171949 -0.071091      1.000000
 -0.173810  0.028659 -0.071092      1.000000
 -0.139048  0.000000 -0.071092      1.000000
 -0.104286 -0.028658 -0.071092      1.000000
 -0.034762 -0.028658 -0.071092      1.000000
  0.000000 -0.057316 -0.071092      1.000000
  0.034762 -0.085975 -0.071092      1.000000
  0.069524 -0.114633 -0.071091      1.000000
  0.104286 -0.143291 -0.071091      1.000000
 -0.139048  0.057317 -0.071092      1.000000
 -0.104286  0.028659 -0.071092      1.000000
 -0.069524  0.000000 -0.071092      1.000000
  0.000000  0.000000 -0.035546      1.000000
  0.034762 -0.028658 -0.035546      1.000000
  0.069524 -0.057316 -0.035546      1.000000
  0.104286 -0.085975 -0.035546      1.000000
  0.139048 -0.114633 -0.035545      1.000000
 -0.104286  0.085975 -0.035546      1.000000
 -0.069524  0.057317 -0.035546      1.000000
 -0.034762  0.028659 -0.035546      1.000000
  0.034762  0.028659 -0.035546      1.000000
  0.069524  0.000000 -0.035546      1.000000
  0.104286 -0.028658 -0.035546      1.000000
  0.139048 -0.057316 -0.035546      1.000000
  0.173810 -0.085975 -0.035546      1.000000
 -0.069524  0.114633 -0.035547      1.000000
 -0.034762  0.085975 -0.035546      1.000000
  0.000000  0.057317 -0.035546      1.000000
  0.069524  0.057317 -0.035546      1.000000
  0.104286  0.028659 -0.035546      1.000000
  0.139048  0.000000 -0.035546      1.000000
  0.173810 -0.028658 -0.035546      1.000000
  0.208572 -0.057316 -0.035546      1.000000
 -0.034762  0.143292 -0.035547      1.000000
  0.000000  0.114633 -0.035547      1.000000
  0.034762  0.085975 -0.035546      1.000000
  0.104286  0.085975 -0.035546      1.000000
  0.139048  0.057317 -0.035546      1.000000
  0.173810  0.028659 -0.035546      1.000000
  0.208572  0.000000 -0.035546      1.000000
  0.243334 -0.028658 -0.035546      1.000000
  0.000000  0.171950 -0.035547      1.000000
  0.034762  0.143292 -0.035547      1.000000
  0.069524  0.114633 -0.035547      1.000000
  0.139048  0.114633 -0.035547      1.000000
  0.173810  0.085975 -0.035546      1.000000
  0.208572  0.057317 -0.035546      1.000000
  0.243334  0.028659 -0.035546      1.000000
  0.278096  0.000000 -0.035546      1.000000
  0.034762  0.200608 -0.035547      1.000000
  0.069524  0.171950 -0.035547      1.000000
  0.104286  0.143292 -0.035547      1.000000
 -0.104286 -0.085975 -0.035546      1.000000
 -0.069524 -0.114633 -0.035545      1.000000
 -0.034762 -0.143291 -0.035545      1.000000
  0.000000 -0.171950 -0.035545      1.000000
  0.034762 -0.200608 -0.035545      1.000000
 -0.208572  0.000000 -0.035546      1.000000
 -0.173810 -0.028658 -0.035546      1.000000
 -0.139048 -0.057316 -0.035546      1.000000
 -0.069524 -0.057316 -0.035546      1.000000
 -0.034762 -0.085975 -0.035546      1.000000
  0.000000 -0.114633 -0.035545      1.000000
  0.034762 -0.143291 -0.035545      1.000000
  0.069524 -0.171950 -0.035545      1.000000
 -0.173810  0.028659 -0.035546      1.000000
 -0.139048  0.000000 -0.035546      1.000000
 -0.104286 -0.028658 -0.035546      1.000000
 -0.034762 -0.028658 -0.035546      1.000000
  0.000000 -0.057316 -0.035546      1.000000
  0.034762 -0.085975 -0.035546      1.000000
  0.069524 -0.114633 -0.035545      1.000000
  0.104286 -0.143291 -0.035545      1.000000
 -0.139048  0.057317 -0.035546      1.000000
 -0.104286  0.028659 -0.035546      1.000000
 -0.069524  0.000000 -0.035546      1.000000
 


--------------------------------------------------------------------------------------------------------




 Dimension of arrays:
   k-points           NKPTS =    384   k-points in BZ     NKDIM =    384   number of bands    NBANDS=     32
   number of dos      NEDOS =    301   number of ions     NIONS =      4
   non local maximal  LDIM  =      6   non local SUM 2l+1 LMDIM =     18
   total plane-waves  NPLWV =  23040
   max r-space proj   IRMAX =      1   max aug-charges    IRDMAX=  23943
   dimension x,y,z NGX =    24 NGY =   24 NGZ =   40
   dimension x,y,z NGXF=    48 NGYF=   48 NGZF=   80
   support grid    NGXF=    48 NGYF=   48 NGZF=   80
   ions per type =               2   2
   NGX,Y,Z   is equivalent  to a cutoff of  14.12, 14.12, 14.18 a.u.
   NGXF,Y,Z  is equivalent  to a cutoff of  28.23, 28.23, 28.37 a.u.

 SYSTEM =  unknown system                          
 POSCAR =  Ga N                                    

 Startparameter for this run:
   NWRITE =      2    write-flag & timer
   PREC   = accura    normal or accurate (medium, high low for compatibility)
   ISTART =      0    job   : 0-new  1-cont  2-samecut
   ICHARG =      2    charge: 1-file 2-atom 10-const
   ISPIN  =      1    spin polarized calculation?
   LNONCOLLINEAR =      F non collinear calculations
   LSORBIT =      F    spin-orbit coupling
   INIWAV =      1    electr: 0-lowe 1-rand  2-diag
   LASPH  =      F    aspherical Exc in radial PAW
 Electronic Relaxation 1
   ENCUT  =  600.0 eV  44.10 Ry    6.64 a.u.   5.65  5.65  9.36*2*pi/ulx,y,z
   ENINI  =  600.0     initial cutoff
   ENAUG  =  627.1 eV  augmentation charge cutoff
   NELM   =     60;   NELMIN=  2; NELMDL= -5     # of ELM steps 
   EDIFF  = 0.1E-06   stopping-criterion for ELM
   LREAL  =      F    real-space projection
   NLSPLINE    = F    spline interpolate recip. space projectors
   LCOMPAT=      F    compatible to vasp.4.4
   GGA_COMPAT  = T    GGA compatible to vasp.4.4-vasp.4.6
   LMAXPAW     = -100 max onsite density
   LMAXMIX     =    2 max onsite mixed and CHGCAR
   VOSKOWN=      0    Vosko Wilk Nusair interpolation
   ROPT   =    0.00000   0.00000
 Ionic relaxation
   EDIFFG = 0.1E-05   stopping-criterion for IOM
   NSW    =      0    number of steps for IOM
   NBLOCK =      1;   KBLOCK =      1    inner block; outer block 
   IBRION =     -1    ionic relax: 0-MD 1-quasi-New 2-CG
   NFREE  =      0    steps in history (QN), initial steepest desc. (CG)
   ISIF   =      2    stress and relaxation
   IWAVPR =     10    prediction:  0-non 1-charg 2-wave 3-comb
   ISYM   =     -1    0-nonsym 1-usesym 2-fastsym
   LCORR  =      T    Harris-Foulkes like correction to forces

   POTIM  = 0.5000    time-step for ionic-motion
   TEIN   =    0.0    initial temperature
   TEBEG  =    0.0;   TEEND  =   0.0 temperature during run
   SMASS  =  -3.00    Nose mass-parameter (am)
   estimated Nose-frequenzy (Omega)   =  0.10E-29 period in steps = 0.13E+47 mass=  -0.183E-27a.u.
   SCALEE = 1.0000    scale energy and forces
   NPACO  =    256;   APACO  = 10.0  distance and # of slots for P.C.
   PSTRESS=    0.0 pullay stress

  Mass of Ions in am
   POMASS =  69.72 14.00
  Ionic Valenz
   ZVAL   =  13.00  5.00
  Atomic Wigner-Seitz radii
   RWIGS  =  -1.00 -1.00
  virtual crystal weights 
   VCA    =   1.00  1.00
   NELECT =      36.0000    total number of electrons
   NUPDOWN=      -1.0000    fix difference up-down

 DOS related values:
   EMIN   =  10.00;   EMAX   =-10.00  energy-range for DOS
   EFERMI =   0.00
   ISMEAR =     0;   SIGMA  =   0.05  broadening in eV -4-tet -1-fermi 0-gaus

 Electronic relaxation 2 (details)
   IALGO  =     38    algorithm
   LDIAG  =      T    sub-space diagonalisation (order eigenvalues)
   LSUBROT=      F    optimize rotation matrix (better conditioning)
   TURBO    =      0    0=normal 1=particle mesh
   IRESTART =      0    0=no restart 2=restart with 2 vectors
   NREBOOT  =      0    no. of reboots
   NMIN     =      0    reboot dimension
   EREF     =   0.00    reference energy to select bands
   IMIX   =      4    mixing-type and parameters
     AMIX     =   0.40;   BMIX     =  1.00
     AMIX_MAG =   1.60;   BMIX_MAG =  1.00
     AMIN     =   0.10
     WC   =   100.;   INIMIX=   1;  MIXPRE=   1;  MAXMIX= -45

 Intra band minimization:
   WEIMIN = 0.0000     energy-eigenvalue tresh-hold
   EBREAK =  0.78E-09  absolut break condition
   DEPER  =   0.30     relativ break condition  

   TIME   =   0.40     timestep for ELM

  volume/ion in A,a.u.               =       9.19        62.03
  Fermi-wavevector in a.u.,A,eV,Ry     =   1.625592  3.071924 35.954070  2.642550
  Thomas-Fermi vector in A             =   2.718690
 
 Write flags
   LWAVE        =      F    write WAVECAR
   LDOWNSAMPLE  =      F    k-point downsampling of WAVECAR
   LCHARG       =      F    write CHGCAR
   LVTOT        =      F    write LOCPOT, total local potential
   LVHAR        =      F    write LOCPOT, Hartree potential only
   LELF         =      F    write electronic localiz. function (ELF)
   LORBIT       =      0    0 simple, 1 ext, 2 COOP (PROOUT), +10 PAW based schemes


 Dipole corrections
   LMONO  =      F    monopole corrections only (constant potential shift)
   LDIPOL =      F    correct potential (dipole corrections)
   IDIPOL =      0    1-x, 2-y, 3-z, 4-all directions 
   EPSILON=  1.0000000 bulk dielectric constant

 Exchange correlation treatment:
   GGA     =    PE    GGA type
   LEXCH   =     8    internal setting for exchange type
   LIBXC   =     F    Libxc                    
   VOSKOWN =     0    Vosko Wilk Nusair interpolation
   LHFCALC =     F    Hartree Fock is set to
   LHFONE  =     F    Hartree Fock one center treatment
   AEXX    =    0.0000 exact exchange contribution

 Linear response parameters
   LEPSILON=     F    determine dielectric tensor
   LRPA    =     F    only Hartree local field effects (RPA)
   LNABLA  =     F    use nabla operator in PAW spheres
   LVEL    =     F    velocity operator in full k-point grid
   CSHIFT  =0.1000    complex shift for real part using Kramers Kronig
   OMEGAMAX=  -1.0    maximum frequency
   DEG_THRESHOLD= 0.2000000E-02 threshold for treating states as degnerate
   RTIME   =   -0.100 relaxation time in fs
  (WPLASMAI=    0.000 imaginary part of plasma frequency in eV, 0.658/RTIME)
   DFIELD  = 0.0000000 0.0000000 0.0000000 field for delta impulse in time
 
  Optional k-point grid parameters
   LKPOINTS_OPT  =     F    use optional k-point grid
   KPOINTS_OPT_MODE=     1    mode for optional k-point grid
 
 Orbital magnetization related:
   ORBITALMAG=     F  switch on orbital magnetization
   LCHIMAG   =     F  perturbation theory with respect to B field
   DQ        =  0.001000  dq finite difference perturbation B field
   LLRAUG    =     F  two centre corrections for induced B field



--------------------------------------------------------------------------------------------------------


 Static calculation
 charge density and potential will be updated during run
 non-spin polarized calculation
 Variant of blocked Davidson
 Davidson routine will perform the subspace rotation
 perform sub-space diagonalisation
    after iterative eigenvector-optimisation
 modified Broyden-mixing scheme, WC =      100.0
 initial mixing is a Kerker type mixing with AMIX =  0.4000 and BMIX =      1.0000
 Hartree-type preconditioning will be used
 using additional bands           14
 reciprocal scheme for non local part
 use partial core corrections
 calculate Harris-corrections to forces 
   (improved forces if not selfconsistent)
 use gradient corrections 
 use of overlap-Matrix (Vanderbilt PP)
 Gauss-broadening in eV      SIGMA  =   0.05


--------------------------------------------------------------------------------------------------------


  energy-cutoff  :      600.00
  volume of cell :       36.77
      direct lattice vectors                 reciprocal lattice vectors
     1.797939366 -2.180868281 -0.000011675     0.278096141 -0.229266483  0.000001078
     1.797939367  2.180868282  0.000011686     0.278096141  0.229266483 -0.000001079
     0.000000012  0.000022053  4.688757833    -0.000000001 -0.000001142  0.213276103

  length of vectors
     2.826441654  2.826441655  4.688757833     0.360417236  0.360417236  0.213276103


 
 k-points in units of 2pi/SCALE and weight: KPOINTS created by Atomic Simulation Env
   0.00000000  0.00000000  0.00000000       0.003
   0.03476202 -0.02865831  0.00000013       0.003
   0.06952404 -0.05731662  0.00000027       0.003
   0.10428605 -0.08597493  0.00000040       0.003
   0.13904807 -0.11463324  0.00000054       0.003
  -0.10428605  0.08597493 -0.00000040       0.003
  -0.06952404  0.05731662 -0.00000027       0.003
  -0.03476202  0.02865831 -0.00000013       0.003
   0.03476202  0.02865831 -0.00000013       0.003
   0.06952404 -0.00000000 -0.00000000       0.003
   0.10428605 -0.02865831  0.00000013       0.003
   0.13904807 -0.05731662  0.00000027       0.003
   0.17381009 -0.08597493  0.00000040       0.003
  -0.06952404  0.11463324 -0.00000054       0.003
  -0.03476202  0.08597493 -0.00000040       0.003
  -0.00000000  0.05731662 -0.00000027       0.003
   0.06952404  0.05731662 -0.00000027       0.003
   0.10428605  0.02865831 -0.00000014       0.003
   0.13904807 -0.00000000 -0.00000000       0.003
   0.17381009 -0.02865831  0.00000013       0.003
   0.20857211 -0.05731662  0.00000027       0.003
  -0.03476202  0.14329155 -0.00000067       0.003
  -0.00000000  0.11463324 -0.00000054       0.003
   0.03476202  0.08597493 -0.00000040       0.003
   0.10428605  0.08597493 -0.00000040       0.003
   0.13904807  0.05731662 -0.00000027       0.003
   0.17381009  0.02865831 -0.00000014       0.003
   0.20857211 -0.00000000 -0.00000000       0.003
   0.24333412 -0.02865831  0.00000013       0.003
  -0.00000000  0.17194986 -0.00000081       0.003
   0.03476202  0.14329155 -0.00000067       0.003
   0.06952404  0.11463324 -0.00000054       0.003
   0.13904807  0.11463324 -0.00000054       0.003
   0.17381009  0.08597493 -0.00000040       0.003
   0.20857211  0.05731662 -0.00000027       0.003
   0.24333412  0.02865831 -0.00000014       0.003
   0.27809614 -0.00000000 -0.00000000       0.003
   0.03476202  0.20060817 -0.00000094       0.003
   0.06952404  0.17194986 -0.00000081       0.003
   0.10428605  0.14329155 -0.00000067       0.003
  -0.10428605 -0.08597493  0.00000040       0.003
  -0.06952404 -0.11463324  0.00000054       0.003
  -0.03476202 -0.14329155  0.00000067       0.003
   0.00000000 -0.17194986  0.00000081       0.003
   0.03476202 -0.20060817  0.00000094       0.003
  -0.20857211  0.00000000  0.00000000       0.003
  -0.17381009 -0.02865831  0.00000014       0.003
  -0.13904807 -0.05731662  0.00000027       0.003
  -0.06952404 -0.05731662  0.00000027       0.003
  -0.03476202 -0.08597493  0.00000040       0.003
   0.00000000 -0.11463324  0.00000054       0.003
   0.03476202 -0.14329155  0.00000067       0.003
   0.06952404 -0.17194986  0.00000081       0.003
  -0.17381009  0.02865831 -0.00000013       0.003
  -0.13904807  0.00000000  0.00000000       0.003
  -0.10428605 -0.02865831  0.00000014       0.003
  -0.03476202 -0.02865831  0.00000013       0.003
   0.00000000 -0.05731662  0.00000027       0.003
   0.03476202 -0.08597493  0.00000040       0.003
   0.06952404 -0.11463324  0.00000054       0.003
   0.10428605 -0.14329155  0.00000067       0.003
  -0.13904807  0.05731662 -0.00000027       0.003
  -0.10428605  0.02865831 -0.00000013       0.003
  -0.06952404  0.00000000  0.00000000       0.003
  -0.00000000 -0.00000019  0.03554602       0.003
   0.03476202 -0.02865850  0.03554615       0.003
   0.06952404 -0.05731681  0.03554629       0.003
   0.10428605 -0.08597512  0.03554642       0.003
   0.13904807 -0.11463343  0.03554656       0.003
  -0.10428605  0.08597474  0.03554561       0.003
  -0.06952404  0.05731643  0.03554575       0.003
  -0.03476202  0.02865812  0.03554588       0.003
   0.03476202  0.02865812  0.03554588       0.003
   0.06952404 -0.00000019  0.03554602       0.003
   0.10428605 -0.02865850  0.03554615       0.003
   0.13904807 -0.05731681  0.03554629       0.003
   0.17381009 -0.08597512  0.03554642       0.003
  -0.06952404  0.11463305  0.03554548       0.003
  -0.03476202  0.08597474  0.03554561       0.003
  -0.00000000  0.05731643  0.03554575       0.003
   0.06952404  0.05731643  0.03554575       0.003
   0.10428605  0.02865812  0.03554588       0.003
   0.13904807 -0.00000019  0.03554602       0.003
   0.17381009 -0.02865850  0.03554615       0.003
   0.20857211 -0.05731681  0.03554629       0.003
  -0.03476202  0.14329136  0.03554534       0.003
  -0.00000000  0.11463305  0.03554548       0.003
   0.03476202  0.08597474  0.03554561       0.003
   0.10428605  0.08597474  0.03554561       0.003
   0.13904807  0.05731643  0.03554575       0.003
   0.17381009  0.02865812  0.03554588       0.003
   0.20857211 -0.00000019  0.03554602       0.003
   0.24333412 -0.02865850  0.03554615       0.003
  -0.00000000  0.17194967  0.03554521       0.003
   0.03476202  0.14329136  0.03554534       0.003
   0.06952404  0.11463305  0.03554548       0.003
   0.13904807  0.11463305  0.03554548       0.003
   0.17381009  0.08597474  0.03554561       0.003
   0.20857211  0.05731643  0.03554575       0.003
   0.24333412  0.02865812  0.03554588       0.003
   0.27809614 -0.00000019  0.03554602       0.003
   0.03476202  0.20060798  0.03554507       0.003
   0.06952404  0.17194967  0.03554521       0.003
   0.10428605  0.14329136  0.03554534       0.003
  -0.10428605 -0.08597512  0.03554642       0.003
  -0.06952404 -0.11463343  0.03554656       0.003
  -0.03476202 -0.14329174  0.03554669       0.003
  -0.00000000 -0.17195005  0.03554683       0.003
   0.03476202 -0.20060836  0.03554696       0.003
  -0.20857211 -0.00000019  0.03554602       0.003
  -0.17381009 -0.02865850  0.03554615       0.003
  -0.13904807 -0.05731681  0.03554629       0.003
  -0.06952404 -0.05731681  0.03554629       0.003
  -0.03476202 -0.08597512  0.03554642       0.003
  -0.00000000 -0.11463343  0.03554656       0.003
   0.03476202 -0.14329174  0.03554669       0.003
   0.06952404 -0.17195005  0.03554683       0.003
  -0.17381009  0.02865812  0.03554588       0.003
  -0.13904807 -0.00000019  0.03554602       0.003
  -0.10428605 -0.02865850  0.03554615       0.003
  -0.03476202 -0.02865850  0.03554615       0.003
  -0.00000000 -0.05731681  0.03554629       0.003
   0.03476202 -0.08597512  0.03554642       0.003
   0.06952404 -0.11463343  0.03554656       0.003
   0.10428605 -0.14329174  0.03554669       0.003
  -0.13904807  0.05731643  0.03554575       0.003
  -0.10428605  0.02865812  0.03554588       0.003
  -0.06952404 -0.00000019  0.03554602       0.003
  -0.00000000 -0.00000038  0.07109203       0.003
   0.03476202 -0.02865869  0.07109217       0.003
   0.06952404 -0.05731700  0.07109230       0.003
   0.10428605 -0.08597531  0.07109244       0.003
   0.13904807 -0.11463362  0.07109257       0.003
  -0.10428605  0.08597455  0.07109163       0.003
  -0.06952404  0.05731624  0.07109177       0.003
  -0.03476202  0.02865793  0.07109190       0.003
   0.03476202  0.02865793  0.07109190       0.003
   0.06952404 -0.00000038  0.07109203       0.003
   0.10428605 -0.02865869  0.07109217       0.003
   0.13904807 -0.05731700  0.07109230       0.003
   0.17381009 -0.08597531  0.07109244       0.003
  -0.06952404  0.11463286  0.07109150       0.003
  -0.03476202  0.08597455  0.07109163       0.003
  -0.00000000  0.05731624  0.07109176       0.003
   0.06952404  0.05731624  0.07109176       0.003
   0.10428605  0.02865793  0.07109190       0.003
   0.13904807 -0.00000038  0.07109203       0.003
   0.17381009 -0.02865869  0.07109217       0.003
   0.20857211 -0.05731700  0.07109230       0.003
  -0.03476202  0.14329117  0.07109136       0.003
  -0.00000000  0.11463286  0.07109150       0.003
   0.03476202  0.08597455  0.07109163       0.003
   0.10428605  0.08597455  0.07109163       0.003
   0.13904807  0.05731624  0.07109176       0.003
   0.17381009  0.02865793  0.07109190       0.003
   0.20857211 -0.00000038  0.07109203       0.003
   0.24333412 -0.02865869  0.07109217       0.003
  -0.00000000  0.17194948  0.07109123       0.003
   0.03476202  0.14329117  0.07109136       0.003
   0.06952404  0.11463286  0.07109150       0.003
   0.13904807  0.11463286  0.07109149       0.003
   0.17381009  0.08597455  0.07109163       0.003
   0.20857211  0.05731624  0.07109176       0.003
   0.24333412  0.02865793  0.07109190       0.003
   0.27809614 -0.00000038  0.07109203       0.003
   0.03476202  0.20060779  0.07109109       0.003
   0.06952404  0.17194948  0.07109123       0.003
   0.10428605  0.14329117  0.07109136       0.003
  -0.10428605 -0.08597531  0.07109244       0.003
  -0.06952404 -0.11463362  0.07109257       0.003
  -0.03476202 -0.14329193  0.07109271       0.003
  -0.00000000 -0.17195024  0.07109284       0.003
   0.03476202 -0.20060855  0.07109298       0.003
  -0.20857211 -0.00000038  0.07109203       0.003
  -0.17381009 -0.02865869  0.07109217       0.003
  -0.13904807 -0.05731700  0.07109230       0.003
  -0.06952404 -0.05731700  0.07109230       0.003
  -0.03476202 -0.08597531  0.07109244       0.003
  -0.00000000 -0.11463362  0.07109257       0.003
   0.03476202 -0.14329193  0.07109271       0.003
   0.06952404 -0.17195024  0.07109284       0.003
  -0.17381009  0.02865793  0.07109190       0.003
  -0.13904807 -0.00000038  0.07109203       0.003
  -0.10428605 -0.02865869  0.07109217       0.003
  -0.03476202 -0.02865869  0.07109217       0.003
  -0.00000000 -0.05731700  0.07109230       0.003
   0.03476202 -0.08597531  0.07109244       0.003
   0.06952404 -0.11463362  0.07109257       0.003
   0.10428605 -0.14329193  0.07109271       0.003
  -0.13904807  0.05731624  0.07109177       0.003
  -0.10428605  0.02865793  0.07109190       0.003
  -0.06952404 -0.00000038  0.07109203       0.003
  -0.00000000 -0.00000057  0.10663805       0.003
   0.03476202 -0.02865888  0.10663819       0.003
   0.06952403 -0.05731719  0.10663832       0.003
   0.10428605 -0.08597550  0.10663846       0.003
   0.13904807 -0.11463381  0.10663859       0.003
  -0.10428605  0.08597436  0.10663765       0.003
  -0.06952404  0.05731605  0.10663778       0.003
  -0.03476202  0.02865774  0.10663792       0.003
   0.03476202  0.02865774  0.10663792       0.003
   0.06952403 -0.00000057  0.10663805       0.003
   0.10428605 -0.02865888  0.10663819       0.003
   0.13904807 -0.05731719  0.10663832       0.003
   0.17381009 -0.08597550  0.10663846       0.003
  -0.06952404  0.11463267  0.10663751       0.003
  -0.03476202  0.08597436  0.10663765       0.003
  -0.00000000  0.05731605  0.10663778       0.003
   0.06952403  0.05731605  0.10663778       0.003
   0.10428605  0.02865774  0.10663792       0.003
   0.13904807 -0.00000057  0.10663805       0.003
   0.17381009 -0.02865888  0.10663819       0.003
   0.20857211 -0.05731719  0.10663832       0.003
  -0.03476202  0.14329098  0.10663738       0.003
  -0.00000000  0.11463267  0.10663751       0.003
   0.03476202  0.08597436  0.10663765       0.003
   0.10428605  0.08597436  0.10663765       0.003
   0.13904807  0.05731605  0.10663778       0.003
   0.17381009  0.02865774  0.10663792       0.003
   0.20857211 -0.00000057  0.10663805       0.003
   0.24333412 -0.02865888  0.10663819       0.003
  -0.00000000  0.17194929  0.10663724       0.003
   0.03476202  0.14329098  0.10663738       0.003
   0.06952403  0.11463267  0.10663751       0.003
   0.13904807  0.11463267  0.10663751       0.003
   0.17381009  0.08597436  0.10663765       0.003
   0.20857211  0.05731605  0.10663778       0.003
   0.24333412  0.02865774  0.10663792       0.003
   0.27809614 -0.00000057  0.10663805       0.003
   0.03476202  0.20060760  0.10663711       0.003
   0.06952403  0.17194929  0.10663724       0.003
   0.10428605  0.14329098  0.10663738       0.003
  -0.10428605 -0.08597550  0.10663846       0.003
  -0.06952404 -0.11463381  0.10663859       0.003
  -0.03476202 -0.14329212  0.10663873       0.003
  -0.00000000 -0.17195043  0.10663886       0.003
   0.03476202 -0.20060874  0.10663900       0.003
  -0.20857211 -0.00000057  0.10663805       0.003
  -0.17381009 -0.02865888  0.10663819       0.003
  -0.13904807 -0.05731719  0.10663832       0.003
  -0.06952404 -0.05731719  0.10663832       0.003
  -0.03476202 -0.08597550  0.10663846       0.003
  -0.00000000 -0.11463381  0.10663859       0.003
   0.03476202 -0.14329212  0.10663873       0.003
   0.06952404 -0.17195043  0.10663886       0.003
  -0.17381009  0.02865774  0.10663792       0.003
  -0.13904807 -0.00000057  0.10663805       0.003
  -0.10428605 -0.02865888  0.10663819       0.003
  -0.03476202 -0.02865888  0.10663819       0.003
  -0.00000000 -0.05731719  0.10663832       0.003
   0.03476202 -0.08597550  0.10663846       0.003
   0.06952404 -0.11463381  0.10663859       0.003
   0.10428605 -0.14329212  0.10663873       0.003
  -0.13904807  0.05731605  0.10663778       0.003
  -0.10428605  0.02865774  0.10663792       0.003
  -0.06952404 -0.00000057  0.10663805       0.003
   0.00000000  0.00000038 -0.07109203       0.003
   0.03476202 -0.02865793 -0.07109190       0.003
   0.06952404 -0.05731624 -0.07109177       0.003
   0.10428605 -0.08597455 -0.07109163       0.003
   0.13904807 -0.11463286 -0.07109150       0.003
  -0.10428605  0.08597531 -0.07109244       0.003
  -0.06952404  0.05731700 -0.07109230       0.003
  -0.03476202  0.02865869 -0.07109217       0.003
   0.03476202  0.02865869 -0.07109217       0.003
   0.06952404  0.00000038 -0.07109203       0.003
   0.10428605 -0.02865793 -0.07109190       0.003
   0.13904807 -0.05731624 -0.07109177       0.003
   0.17381009 -0.08597455 -0.07109163       0.003
  -0.06952404  0.11463362 -0.07109257       0.003
  -0.03476202  0.08597531 -0.07109244       0.003
   0.00000000  0.05731700 -0.07109230       0.003
   0.06952404  0.05731700 -0.07109230       0.003
   0.10428605  0.02865869 -0.07109217       0.003
   0.13904807  0.00000038 -0.07109203       0.003
   0.17381009 -0.02865793 -0.07109190       0.003
   0.20857211 -0.05731624 -0.07109177       0.003
  -0.03476202  0.14329193 -0.07109271       0.003
   0.00000000  0.11463362 -0.07109257       0.003
   0.03476202  0.08597531 -0.07109244       0.003
   0.10428605  0.08597531 -0.07109244       0.003
   0.13904807  0.05731700 -0.07109230       0.003
   0.17381009  0.02865869 -0.07109217       0.003
   0.20857211  0.00000038 -0.07109203       0.003
   0.24333412 -0.02865793 -0.07109190       0.003
   0.00000000  0.17195024 -0.07109284       0.003
   0.03476202  0.14329193 -0.07109271       0.003
   0.06952404  0.11463362 -0.07109257       0.003
   0.13904807  0.11463362 -0.07109257       0.003
   0.17381009  0.08597531 -0.07109244       0.003
   0.20857211  0.05731700 -0.07109230       0.003
   0.24333412  0.02865869 -0.07109217       0.003
   0.27809614  0.00000038 -0.07109204       0.003
   0.03476202  0.20060855 -0.07109298       0.003
   0.06952404  0.17195024 -0.07109284       0.003
   0.10428605  0.14329193 -0.07109271       0.003
  -0.10428605 -0.08597455 -0.07109163       0.003
  -0.06952404 -0.11463286 -0.07109150       0.003
  -0.03476202 -0.14329117 -0.07109136       0.003
   0.00000000 -0.17194948 -0.07109123       0.003
   0.03476202 -0.20060779 -0.07109109       0.003
  -0.20857211  0.00000038 -0.07109203       0.003
  -0.17381009 -0.02865793 -0.07109190       0.003
  -0.13904807 -0.05731624 -0.07109176       0.003
  -0.06952404 -0.05731624 -0.07109176       0.003
  -0.03476202 -0.08597455 -0.07109163       0.003
   0.00000000 -0.11463286 -0.07109150       0.003
   0.03476202 -0.14329117 -0.07109136       0.003
   0.06952404 -0.17194948 -0.07109123       0.003
  -0.17381009  0.02865869 -0.07109217       0.003
  -0.13904807  0.00000038 -0.07109203       0.003
  -0.10428605 -0.02865793 -0.07109190       0.003
  -0.03476202 -0.02865793 -0.07109190       0.003
   0.00000000 -0.05731624 -0.07109176       0.003
   0.03476202 -0.08597455 -0.07109163       0.003
   0.06952404 -0.11463286 -0.07109150       0.003
   0.10428605 -0.14329117 -0.07109136       0.003
  -0.13904807  0.05731700 -0.07109230       0.003
  -0.10428605  0.02865869 -0.07109217       0.003
  -0.06952404  0.00000038 -0.07109203       0.003
   0.00000000  0.00000019 -0.03554602       0.003
   0.03476202 -0.02865812 -0.03554588       0.003
   0.06952404 -0.05731643 -0.03554575       0.003
   0.10428605 -0.08597474 -0.03554561       0.003
   0.13904807 -0.11463305 -0.03554548       0.003
  -0.10428605  0.08597512 -0.03554642       0.003
  -0.06952404  0.05731681 -0.03554629       0.003
  -0.03476202  0.02865850 -0.03554615       0.003
   0.03476202  0.02865850 -0.03554615       0.003
   0.06952404  0.00000019 -0.03554602       0.003
   0.10428605 -0.02865812 -0.03554588       0.003
   0.13904807 -0.05731643 -0.03554575       0.003
   0.17381009 -0.08597474 -0.03554561       0.003
  -0.06952404  0.11463343 -0.03554656       0.003
  -0.03476202  0.08597512 -0.03554642       0.003
   0.00000000  0.05731681 -0.03554629       0.003
   0.06952404  0.05731681 -0.03554629       0.003
   0.10428605  0.02865850 -0.03554615       0.003
   0.13904807  0.00000019 -0.03554602       0.003
   0.17381009 -0.02865812 -0.03554588       0.003
   0.20857211 -0.05731643 -0.03554575       0.003
  -0.03476202  0.14329174 -0.03554669       0.003
   0.00000000  0.11463343 -0.03554656       0.003
   0.03476202  0.08597512 -0.03554642       0.003
   0.10428605  0.08597512 -0.03554642       0.003
   0.13904807  0.05731681 -0.03554629       0.003
   0.17381009  0.02865850 -0.03554615       0.003
   0.20857211  0.00000019 -0.03554602       0.003
   0.24333412 -0.02865812 -0.03554588       0.003
   0.00000000  0.17195005 -0.03554683       0.003
   0.03476202  0.14329174 -0.03554669       0.003
   0.06952404  0.11463343 -0.03554656       0.003
   0.13904807  0.11463343 -0.03554656       0.003
   0.17381009  0.08597512 -0.03554642       0.003
   0.20857211  0.05731681 -0.03554629       0.003
   0.24333412  0.02865850 -0.03554615       0.003
   0.27809614  0.00000019 -0.03554602       0.003
   0.03476202  0.20060836 -0.03554696       0.003
   0.06952404  0.17195005 -0.03554683       0.003
   0.10428605  0.14329174 -0.03554669       0.003
  -0.10428605 -0.08597474 -0.03554561       0.003
  -0.06952404 -0.11463305 -0.03554548       0.003
  -0.03476202 -0.14329136 -0.03554534       0.003
   0.00000000 -0.17194967 -0.03554521       0.003
   0.03476202 -0.20060798 -0.03554507       0.003
  -0.20857211  0.00000019 -0.03554602       0.003
  -0.17381009 -0.02865812 -0.03554588       0.003
  -0.13904807 -0.05731643 -0.03554575       0.003
  -0.06952404 -0.05731643 -0.03554575       0.003
  -0.03476202 -0.08597474 -0.03554561       0.003
   0.00000000 -0.11463305 -0.03554548       0.003
   0.03476202 -0.14329136 -0.03554534       0.003
   0.06952404 -0.17194967 -0.03554521       0.003
  -0.17381009  0.02865850 -0.03554615       0.003
  -0.13904807  0.00000019 -0.03554602       0.003
  -0.10428605 -0.02865812 -0.03554588       0.003
  -0.03476202 -0.02865812 -0.03554588       0.003
   0.00000000 -0.05731643 -0.03554575       0.003
   0.03476202 -0.08597474 -0.03554561       0.003
   0.06952404 -0.11463305 -0.03554548       0.003
   0.10428605 -0.14329136 -0.03554534       0.003
  -0.13904807  0.05731681 -0.03554629       0.003
  -0.10428605  0.02865850 -0.03554615       0.003
  -0.06952404  0.00000019 -0.03554602       0.003
 
 k-points in reciprocal lattice and weights: KPOINTS created by Atomic Simulation Env
   0.00000000  0.00000000  0.00000000       0.003
   0.12500000  0.00000000  0.00000000       0.003
   0.25000000  0.00000000  0.00000000       0.003
   0.37500000  0.00000000 -0.00000000       0.003
   0.50000000  0.00000000 -0.00000000       0.003
  -0.37500000 -0.00000000  0.00000000       0.003
  -0.25000000 -0.00000000 -0.00000000       0.003
  -0.12500000 -0.00000000  0.00000000       0.003
   0.00000000  0.12500000  0.00000000       0.003
   0.12500000  0.12500000  0.00000000       0.003
   0.25000000  0.12500000 -0.00000000       0.003
   0.37500000  0.12500000 -0.00000000       0.003
   0.50000000  0.12500000 -0.00000000       0.003
  -0.37500000  0.12500000 -0.00000000       0.003
  -0.25000000  0.12500000  0.00000000       0.003
  -0.12500000  0.12500000  0.00000000       0.003
   0.00000000  0.25000000  0.00000000       0.003
   0.12500000  0.25000000 -0.00000000       0.003
   0.25000000  0.25000000 -0.00000000       0.003
   0.37500000  0.25000000 -0.00000000       0.003
   0.50000000  0.25000000  0.00000000       0.003
  -0.37500000  0.25000000  0.00000000       0.003
  -0.25000000  0.25000000  0.00000000       0.003
  -0.12500000  0.25000000 -0.00000000       0.003
   0.00000000  0.37500000 -0.00000000       0.003
   0.12500000  0.37500000 -0.00000000       0.003
   0.25000000  0.37500000 -0.00000000       0.003
   0.37500000  0.37500000  0.00000000       0.003
   0.50000000  0.37500000  0.00000000       0.003
  -0.37500000  0.37500000  0.00000000       0.003
  -0.25000000  0.37500000 -0.00000000       0.003
  -0.12500000  0.37500000  0.00000000       0.003
   0.00000000  0.50000000 -0.00000000       0.003
   0.12500000  0.50000000 -0.00000000       0.003
   0.25000000  0.50000000  0.00000000       0.003
   0.37500000  0.50000000  0.00000000       0.003
   0.50000000  0.50000000  0.00000000       0.003
  -0.37500000  0.50000000 -0.00000000       0.003
  -0.25000000  0.50000000  0.00000000       0.003
  -0.12500000  0.50000000 -0.00000000       0.003
  -0.00000000 -0.37500000  0.00000000       0.003
   0.12500000 -0.37500000 -0.00000000       0.003
   0.25000000 -0.37500000  0.00000000       0.003
   0.37500000 -0.37500000  0.00000000       0.003
   0.50000000 -0.37500000 -0.00000000       0.003
  -0.37500000 -0.37500000 -0.00000000       0.003
  -0.25000000 -0.37500000  0.00000000       0.003
  -0.12500000 -0.37500000  0.00000000       0.003
  -0.00000000 -0.25000000 -0.00000000       0.003
   0.12500000 -0.25000000  0.00000000       0.003
   0.25000000 -0.25000000  0.00000000       0.003
   0.37500000 -0.25000000 -0.00000000       0.003
   0.50000000 -0.25000000  0.00000000       0.003
  -0.37500000 -0.25000000  0.00000000       0.003
  -0.25000000 -0.25000000  0.00000000       0.003
  -0.12500000 -0.25000000  0.00000000       0.003
  -0.00000000 -0.12500000  0.00000000       0.003
   0.12500000 -0.12500000  0.00000000       0.003
   0.25000000 -0.12500000 -0.00000000       0.003
   0.37500000 -0.12500000  0.00000000       0.003
   0.50000000 -0.12500000 -0.00000000       0.003
  -0.37500000 -0.12500000  0.00000000       0.003
  -0.25000000 -0.12500000  0.00000000       0.003
  -0.12500000 -0.12500000  0.00000000       0.003
  -0.00000000  0.00000000  0.16666667       0.003
   0.12500000  0.00000000  0.16666667       0.003
   0.25000000  0.00000000  0.16666667       0.003
   0.37500000  0.00000000  0.16666667       0.003
   0.50000000  0.00000000  0.16666667       0.003
  -0.37500000 -0.00000000  0.16666667       0.003
  -0.25000000 -0.00000000  0.16666667       0.003
  -0.12500000 -0.00000000  0.16666667       0.003
   0.00000000  0.12500000  0.16666667       0.003
   0.12500000  0.12500000  0.16666667       0.003
   0.25000000  0.12500000  0.16666667       0.003
   0.37500000  0.12500000  0.16666667       0.003
   0.50000000  0.12500000  0.16666667       0.003
  -0.37500000  0.12500000  0.16666667       0.003
  -0.25000000  0.12500000  0.16666667       0.003
  -0.12500000  0.12500000  0.16666667       0.003
   0.00000000  0.25000000  0.16666667       0.003
   0.12500000  0.25000000  0.16666667       0.003
   0.25000000  0.25000000  0.16666667       0.003
   0.37500000  0.25000000  0.16666667       0.003
   0.50000000  0.25000000  0.16666667       0.003
  -0.37500000  0.25000000  0.16666667       0.003
  -0.25000000  0.25000000  0.16666667       0.003
  -0.12500000  0.25000000  0.16666667       0.003
   0.00000000  0.37500000  0.16666667       0.003
   0.12500000  0.37500000  0.16666667       0.003
   0.25000000  0.37500000  0.16666667       0.003
   0.37500000  0.37500000  0.16666667       0.003
   0.50000000  0.37500000  0.16666667       0.003
  -0.37500000  0.37500000  0.16666667       0.003
  -0.25000000  0.37500000  0.16666667       0.003
  -0.12500000  0.37500000  0.16666667       0.003
   0.00000000  0.50000000  0.16666667       0.003
   0.12500000  0.50000000  0.16666667       0.003
   0.25000000  0.50000000  0.16666667       0.003
   0.37500000  0.50000000  0.16666667       0.003
   0.50000000  0.50000000  0.16666667       0.003
  -0.37500000  0.50000000  0.16666667       0.003
  -0.25000000  0.50000000  0.16666667       0.003
  -0.12500000  0.50000000  0.16666667       0.003
  -0.00000000 -0.37500000  0.16666667       0.003
   0.12500000 -0.37500000  0.16666667       0.003
   0.25000000 -0.37500000  0.16666667       0.003
   0.37500000 -0.37500000  0.16666667       0.003
   0.50000000 -0.37500000  0.16666667       0.003
  -0.37500000 -0.37500000  0.16666667       0.003
  -0.25000000 -0.37500000  0.16666667       0.003
  -0.12500000 -0.37500000  0.16666667       0.003
  -0.00000000 -0.25000000  0.16666667       0.003
   0.12500000 -0.25000000  0.16666667       0.003
   0.25000000 -0.25000000  0.16666667       0.003
   0.37500000 -0.25000000  0.16666667       0.003
   0.50000000 -0.25000000  0.16666667       0.003
  -0.37500000 -0.25000000  0.16666667       0.003
  -0.25000000 -0.25000000  0.16666667       0.003
  -0.12500000 -0.25000000  0.16666667       0.003
  -0.00000000 -0.12500000  0.16666667       0.003
   0.12500000 -0.12500000  0.16666667       0.003
   0.25000000 -0.12500000  0.16666667       0.003
   0.37500000 -0.12500000  0.16666667       0.003
   0.50000000 -0.12500000  0.16666667       0.003
  -0.37500000 -0.12500000  0.16666667       0.003
  -0.25000000 -0.12500000  0.16666667       0.003
  -0.12500000 -0.12500000  0.16666667       0.003
  -0.00000000  0.00000000  0.33333333       0.003
   0.12500000  0.00000000  0.33333333       0.003
   0.25000000  0.00000000  0.33333333       0.003
   0.37500000  0.00000000  0.33333333       0.003
   0.50000000  0.00000000  0.33333333       0.003
  -0.37500000 -0.00000000  0.33333333       0.003
  -0.25000000 -0.00000000  0.33333333       0.003
  -0.12500000  0.00000000  0.33333333       0.003
   0.00000000  0.12500000  0.33333333       0.003
   0.12500000  0.12500000  0.33333333       0.003
   0.25000000  0.12500000  0.33333333       0.003
   0.37500000  0.12500000  0.33333333       0.003
   0.50000000  0.12500000  0.33333333       0.003
  -0.37500000  0.12500000  0.33333333       0.003
  -0.25000000  0.12500000  0.33333333       0.003
  -0.12500000  0.12500000  0.33333333       0.003
   0.00000000  0.25000000  0.33333333       0.003
   0.12500000  0.25000000  0.33333333       0.003
   0.25000000  0.25000000  0.33333333       0.003
   0.37500000  0.25000000  0.33333333       0.003
   0.50000000  0.25000000  0.33333333       0.003
  -0.37500000  0.25000000  0.33333333       0.003
  -0.25000000  0.25000000  0.33333333       0.003
  -0.12500000  0.25000000  0.33333333       0.003
  -0.00000000  0.37500000  0.33333333       0.003
   0.12500000  0.37500000  0.33333333       0.003
   0.25000000  0.37500000  0.33333333       0.003
   0.37500000  0.37500000  0.33333333       0.003
   0.50000000  0.37500000  0.33333333       0.003
  -0.37500000  0.37500000  0.33333333       0.003
  -0.25000000  0.37500000  0.33333333       0.003
  -0.12500000  0.37500000  0.33333333       0.003
   0.00000000  0.50000000  0.33333333       0.003
   0.12500000  0.50000000  0.33333333       0.003
   0.25000000  0.50000000  0.33333333       0.003
   0.37500000  0.50000000  0.33333333       0.003
   0.50000000  0.50000000  0.33333333       0.003
  -0.37500000  0.50000000  0.33333333       0.003
  -0.25000000  0.50000000  0.33333333       0.003
  -0.12500000  0.50000000  0.33333333       0.003
  -0.00000000 -0.37500000  0.33333333       0.003
   0.12500000 -0.37500000  0.33333333       0.003
   0.25000000 -0.37500000  0.33333333       0.003
   0.37500000 -0.37500000  0.33333333       0.003
   0.50000000 -0.37500000  0.33333333       0.003
  -0.37500000 -0.37500000  0.33333333       0.003
  -0.25000000 -0.37500000  0.33333333       0.003
  -0.12500000 -0.37500000  0.33333333       0.003
  -0.00000000 -0.25000000  0.33333333       0.003
   0.12500000 -0.25000000  0.33333333       0.003
   0.25000000 -0.25000000  0.33333333       0.003
   0.37500000 -0.25000000  0.33333333       0.003
   0.50000000 -0.25000000  0.33333333       0.003
  -0.37500000 -0.25000000  0.33333333       0.003
  -0.25000000 -0.25000000  0.33333333       0.003
  -0.12500000 -0.25000000  0.33333333       0.003
  -0.00000000 -0.12500000  0.33333333       0.003
   0.12500000 -0.12500000  0.33333333       0.003
   0.25000000 -0.12500000  0.33333333       0.003
   0.37500000 -0.12500000  0.33333333       0.003
   0.50000000 -0.12500000  0.33333333       0.003
  -0.37500000 -0.12500000  0.33333333       0.003
  -0.25000000 -0.12500000  0.33333333       0.003
  -0.12500000 -0.12500000  0.33333333       0.003
  -0.00000000  0.00000000  0.50000000       0.003
   0.12500000 -0.00000000  0.50000000       0.003
   0.25000000  0.00000000  0.50000000       0.003
   0.37500000  0.00000000  0.50000000       0.003
   0.50000000  0.00000000  0.50000000       0.003
  -0.37500000 -0.00000000  0.50000000       0.003
  -0.25000000 -0.00000000  0.50000000       0.003
  -0.12500000 -0.00000000  0.50000000       0.003
   0.00000000  0.12500000  0.50000000       0.003
   0.12500000  0.12500000  0.50000000       0.003
   0.25000000  0.12500000  0.50000000       0.003
   0.37500000  0.12500000  0.50000000       0.003
   0.50000000  0.12500000  0.50000000       0.003
  -0.37500000  0.12500000  0.50000000       0.003
  -0.25000000  0.12500000  0.50000000       0.003
  -0.12500000  0.12500000  0.50000000       0.003
   0.00000000  0.25000000  0.50000000       0.003
   0.12500000  0.25000000  0.50000000       0.003
   0.25000000  0.25000000  0.50000000       0.003
   0.37500000  0.25000000  0.50000000       0.003
   0.50000000  0.25000000  0.50000000       0.003
  -0.37500000  0.25000000  0.50000000       0.003
  -0.25000000  0.25000000  0.50000000       0.003
  -0.12500000  0.25000000  0.50000000       0.003
   0.00000000  0.37500000  0.50000000       0.003
   0.12500000  0.37500000  0.50000000       0.003
   0.25000000  0.37500000  0.50000000       0.003
   0.37500000  0.37500000  0.50000000       0.003
   0.50000000  0.37500000  0.50000000       0.003
  -0.37500000  0.37500000  0.50000000       0.003
  -0.25000000  0.37500000  0.50000000       0.003
  -0.12500000  0.37500000  0.50000000       0.003
   0.00000000  0.50000000  0.50000000       0.003
   0.12500000  0.50000000  0.50000000       0.003
   0.25000000  0.50000000  0.50000000       0.003
   0.37500000  0.50000000  0.50000000       0.003
   0.50000000  0.50000000  0.50000000       0.003
  -0.37500000  0.50000000  0.50000000       0.003
  -0.25000000  0.50000000  0.50000000       0.003
  -0.12500000  0.50000000  0.50000000       0.003
   0.00000000 -0.37500000  0.50000000       0.003
   0.12500000 -0.37500000  0.50000000       0.003
   0.25000000 -0.37500000  0.50000000       0.003
   0.37500000 -0.37500000  0.50000000       0.003
   0.50000000 -0.37500000  0.50000000       0.003
  -0.37500000 -0.37500000  0.50000000       0.003
  -0.25000000 -0.37500000  0.50000000       0.003
  -0.12500000 -0.37500000  0.50000000       0.003
  -0.00000000 -0.25000000  0.50000000       0.003
   0.12500000 -0.25000000  0.50000000       0.003
   0.25000000 -0.25000000  0.50000000       0.003
   0.37500000 -0.25000000  0.50000000       0.003
   0.50000000 -0.25000000  0.50000000       0.003
  -0.37500000 -0.25000000  0.50000000       0.003
  -0.25000000 -0.25000000  0.50000000       0.003
  -0.12500000 -0.25000000  0.50000000       0.003
  -0.00000000 -0.12500000  0.50000000       0.003
   0.12500000 -0.12500000  0.50000000       0.003
   0.25000000 -0.12500000  0.50000000       0.003
   0.37500000 -0.12500000  0.50000000       0.003
   0.50000000 -0.12500000  0.50000000       0.003
  -0.37500000 -0.12500000  0.50000000       0.003
  -0.25000000 -0.12500000  0.50000000       0.003
  -0.12500000 -0.12500000  0.50000000       0.003
   0.00000000 -0.00000000 -0.33333333       0.003
   0.12500000 -0.00000000 -0.33333333       0.003
   0.25000000  0.00000000 -0.33333333       0.003
   0.37500000  0.00000000 -0.33333333       0.003
   0.50000000  0.00000000 -0.33333333       0.003
  -0.37500000 -0.00000000 -0.33333333       0.003
  -0.25000000 -0.00000000 -0.33333333       0.003
  -0.12500000 -0.00000000 -0.33333333       0.003
   0.00000000  0.12500000 -0.33333333       0.003
   0.12500000  0.12500000 -0.33333333       0.003
   0.25000000  0.12500000 -0.33333333       0.003
   0.37500000  0.12500000 -0.33333333       0.003
   0.50000000  0.12500000 -0.33333333       0.003
  -0.37500000  0.12500000 -0.33333333       0.003
  -0.25000000  0.12500000 -0.33333333       0.003
  -0.12500000  0.12500000 -0.33333333       0.003
   0.00000000  0.25000000 -0.33333333       0.003
   0.12500000  0.25000000 -0.33333333       0.003
   0.25000000  0.25000000 -0.33333333       0.003
   0.37500000  0.25000000 -0.33333333       0.003
   0.50000000  0.25000000 -0.33333333       0.003
  -0.37500000  0.25000000 -0.33333333       0.003
  -0.25000000  0.25000000 -0.33333333       0.003
  -0.12500000  0.25000000 -0.33333333       0.003
   0.00000000  0.37500000 -0.33333333       0.003
   0.12500000  0.37500000 -0.33333333       0.003
   0.25000000  0.37500000 -0.33333333       0.003
   0.37500000  0.37500000 -0.33333333       0.003
   0.50000000  0.37500000 -0.33333333       0.003
  -0.37500000  0.37500000 -0.33333333       0.003
  -0.25000000  0.37500000 -0.33333333       0.003
  -0.12500000  0.37500000 -0.33333333       0.003
   0.00000000  0.50000000 -0.33333333       0.003
   0.12500000  0.50000000 -0.33333333       0.003
   0.25000000  0.50000000 -0.33333333       0.003
   0.37500000  0.50000000 -0.33333333       0.003
   0.50000000  0.50000000 -0.33333333       0.003
  -0.37500000  0.50000000 -0.33333333       0.003
  -0.25000000  0.50000000 -0.33333333       0.003
  -0.12500000  0.50000000 -0.33333333       0.003
   0.00000000 -0.37500000 -0.33333333       0.003
   0.12500000 -0.37500000 -0.33333333       0.003
   0.25000000 -0.37500000 -0.33333333       0.003
   0.37500000 -0.37500000 -0.33333333       0.003
   0.50000000 -0.37500000 -0.33333333       0.003
  -0.37500000 -0.37500000 -0.33333333       0.003
  -0.25000000 -0.37500000 -0.33333333       0.003
  -0.12500000 -0.37500000 -0.33333333       0.003
  -0.00000000 -0.25000000 -0.33333333       0.003
   0.12500000 -0.25000000 -0.33333333       0.003
   0.25000000 -0.25000000 -0.33333333       0.003
   0.37500000 -0.25000000 -0.33333333       0.003
   0.50000000 -0.25000000 -0.33333333       0.003
  -0.37500000 -0.25000000 -0.33333333       0.003
  -0.25000000 -0.25000000 -0.33333333       0.003
  -0.12500000 -0.25000000 -0.33333333       0.003
  -0.00000000 -0.12500000 -0.33333333       0.003
   0.12500000 -0.12500000 -0.33333333       0.003
   0.25000000 -0.12500000 -0.33333333       0.003
   0.37500000 -0.12500000 -0.33333333       0.003
   0.50000000 -0.12500000 -0.33333333       0.003
  -0.37500000 -0.12500000 -0.33333333       0.003
  -0.25000000 -0.12500000 -0.33333333       0.003
  -0.12500000 -0.12500000 -0.33333333       0.003
   0.00000000 -0.00000000 -0.16666667       0.003
   0.12500000  0.00000000 -0.16666667       0.003
   0.25000000  0.00000000 -0.16666667       0.003
   0.37500000  0.00000000 -0.16666667       0.003
   0.50000000  0.00000000 -0.16666667       0.003
  -0.37500000 -0.00000000 -0.16666667       0.003
  -0.25000000 -0.00000000 -0.16666667       0.003
  -0.12500000 -0.00000000 -0.16666667       0.003
   0.00000000  0.12500000 -0.16666667       0.003
   0.12500000  0.12500000 -0.16666667       0.003
   0.25000000  0.12500000 -0.16666667       0.003
   0.37500000  0.12500000 -0.16666667       0.003
   0.50000000  0.12500000 -0.16666667       0.003
  -0.37500000  0.12500000 -0.16666667       0.003
  -0.25000000  0.12500000 -0.16666667       0.003
  -0.12500000  0.12500000 -0.16666667       0.003
   0.00000000  0.25000000 -0.16666667       0.003
   0.12500000  0.25000000 -0.16666667       0.003
   0.25000000  0.25000000 -0.16666667       0.003
   0.37500000  0.25000000 -0.16666667       0.003
   0.50000000  0.25000000 -0.16666667       0.003
  -0.37500000  0.25000000 -0.16666667       0.003
  -0.25000000  0.25000000 -0.16666667       0.003
  -0.12500000  0.25000000 -0.16666667       0.003
   0.00000000  0.37500000 -0.16666667       0.003
   0.12500000  0.37500000 -0.16666667       0.003
   0.25000000  0.37500000 -0.16666667       0.003
   0.37500000  0.37500000 -0.16666667       0.003
   0.50000000  0.37500000 -0.16666667       0.003
  -0.37500000  0.37500000 -0.16666667       0.003
  -0.25000000  0.37500000 -0.16666667       0.003
  -0.12500000  0.37500000 -0.16666667       0.003
   0.00000000  0.50000000 -0.16666667       0.003
   0.12500000  0.50000000 -0.16666667       0.003
   0.25000000  0.50000000 -0.16666667       0.003
   0.37500000  0.50000000 -0.16666667       0.003
   0.50000000  0.50000000 -0.16666667       0.003
  -0.37500000  0.50000000 -0.16666667       0.003
  -0.25000000  0.50000000 -0.16666667       0.003
  -0.12500000  0.50000000 -0.16666667       0.003
  -0.00000000 -0.37500000 -0.16666667       0.003
   0.12500000 -0.37500000 -0.16666667       0.003
   0.25000000 -0.37500000 -0.16666667       0.003
   0.37500000 -0.37500000 -0.16666667       0.003
   0.50000000 -0.37500000 -0.16666667       0.003
  -0.37500000 -0.37500000 -0.16666667       0.003
  -0.25000000 -0.37500000 -0.16666667       0.003
  -0.12500000 -0.37500000 -0.16666667       0.003
  -0.00000000 -0.25000000 -0.16666667       0.003
   0.12500000 -0.25000000 -0.16666667       0.003
   0.25000000 -0.25000000 -0.16666667       0.003
   0.37500000 -0.25000000 -0.16666667       0.003
   0.50000000 -0.25000000 -0.16666667       0.003
  -0.37500000 -0.25000000 -0.16666667       0.003
  -0.25000000 -0.25000000 -0.16666667       0.003
  -0.12500000 -0.25000000 -0.16666667       0.003
  -0.00000000 -0.12500000 -0.16666667       0.003
   0.12500000 -0.12500000 -0.16666667       0.003
   0.25000000 -0.12500000 -0.16666667       0.003
   0.37500000 -0.12500000 -0.16666667       0.003
   0.50000000 -0.12500000 -0.16666667       0.003
  -0.37500000 -0.12500000 -0.16666667       0.003
  -0.25000000 -0.12500000 -0.16666667       0.003
  -0.12500000 -0.12500000 -0.16666667       0.003
 
 position of ions in fractional coordinates (direct lattice) 
   0.65451176  0.34548859  0.52189166
   0.25347579  0.74652456  0.02189370
   0.68625256  0.31374779  0.92140488
   0.22172524  0.77827511  0.42140447
 
 position of ions in cartesian coordinates  (Angst):
   1.79794000 -0.67392733  2.44702000
   1.79794000  1.07527490  0.10266000
   1.79794000 -0.81236351  4.32024000
   1.79794000  1.21377125  1.97587000
 


--------------------------------------------------------------------------------------------------------


 k-point   1 :   0.0000 0.0000 0.0000  plane waves:    1221
 k-point   2 :   0.1250 0.0000 0.0000  plane waves:    1232
 k-point   3 :   0.2500 0.0000 0.0000  plane waves:    1226
 k-point   4 :   0.3750 0.0000-0.0000  plane waves:    1236
 k-point   5 :   0.5000 0.0000-0.0000  plane waves:    1230
 k-point   6 :  -0.3750-0.0000 0.0000  plane waves:    1236
 k-point   7 :  -0.2500-0.0000-0.0000  plane waves:    1226
 k-point   8 :  -0.1250-0.0000 0.0000  plane waves:    1232
 k-point   9 :   0.0000 0.1250 0.0000  plane waves:    1232
 k-point  10 :   0.1250 0.1250 0.0000  plane waves:    1233
 k-point  11 :   0.2500 0.1250-0.0000  plane waves:    1236
 k-point  12 :   0.3750 0.1250-0.0000  plane waves:    1225
 k-point  13 :   0.5000 0.1250-0.0000  plane waves:    1238
 k-point  14 :  -0.3750 0.1250-0.0000  plane waves:    1228
 k-point  15 :  -0.2500 0.1250 0.0000  plane waves:    1216
 k-point  16 :  -0.1250 0.1250 0.0000  plane waves:    1229
 k-point  17 :   0.0000 0.2500 0.0000  plane waves:    1226
 k-point  18 :   0.1250 0.2500-0.0000  plane waves:    1236
 k-point  19 :   0.2500 0.2500-0.0000  plane waves:    1229
 k-point  20 :   0.3750 0.2500-0.0000  plane waves:    1223
 k-point  21 :   0.5000 0.2500 0.0000  plane waves:    1228
 k-point  22 :  -0.3750 0.2500 0.0000  plane waves:    1229
 k-point  23 :  -0.2500 0.2500 0.0000  plane waves:    1229
 k-point  24 :  -0.1250 0.2500-0.0000  plane waves:    1216
 k-point  25 :   0.0000 0.3750-0.0000  plane waves:    1236
 k-point  26 :   0.1250 0.3750-0.0000  plane waves:    1225
 k-point  27 :   0.2500 0.3750-0.0000  plane waves:    1223
 k-point  28 :   0.3750 0.3750 0.0000  plane waves:    1227
 k-point  29 :   0.5000 0.3750 0.0000  plane waves:    1225
 k-point  30 :  -0.3750 0.3750 0.0000  plane waves:    1216
 k-point  31 :  -0.2500 0.3750-0.0000  plane waves:    1229
 k-point  32 :  -0.1250 0.3750 0.0000  plane waves:    1228
 k-point  33 :   0.0000 0.5000-0.0000  plane waves:    1230
 k-point  34 :   0.1250 0.5000-0.0000  plane waves:    1238
 k-point  35 :   0.2500 0.5000 0.0000  plane waves:    1228
 k-point  36 :   0.3750 0.5000 0.0000  plane waves:    1225
 k-point  37 :   0.5000 0.5000 0.0000  plane waves:    1224
 k-point  38 :  -0.3750 0.5000-0.0000  plane waves:    1225
 k-point  39 :  -0.2500 0.5000 0.0000  plane waves:    1228
 k-point  40 :  -0.1250 0.5000-0.0000  plane waves:    1238
 k-point  41 :  -0.0000-0.3750 0.0000  plane waves:    1236
 k-point  42 :   0.1250-0.3750-0.0000  plane waves:    1228
 k-point  43 :   0.2500-0.3750 0.0000  plane waves:    1229
 k-point  44 :   0.3750-0.3750 0.0000  plane waves:    1216
 k-point  45 :   0.5000-0.3750-0.0000  plane waves:    1225
 k-point  46 :  -0.3750-0.3750-0.0000  plane waves:    1227
 k-point  47 :  -0.2500-0.3750 0.0000  plane waves:    1223
 k-point  48 :  -0.1250-0.3750 0.0000  plane waves:    1225
 k-point  49 :  -0.0000-0.2500-0.0000  plane waves:    1226
 k-point  50 :   0.1250-0.2500 0.0000  plane waves:    1216
 k-point  51 :   0.2500-0.2500 0.0000  plane waves:    1229
 k-point  52 :   0.3750-0.2500-0.0000  plane waves:    1229
 k-point  53 :   0.5000-0.2500 0.0000  plane waves:    1228
 k-point  54 :  -0.3750-0.2500 0.0000  plane waves:    1223
 k-point  55 :  -0.2500-0.2500 0.0000  plane waves:    1229
 k-point  56 :  -0.1250-0.2500 0.0000  plane waves:    1236
 k-point  57 :  -0.0000-0.1250 0.0000  plane waves:    1232
 k-point  58 :   0.1250-0.1250 0.0000  plane waves:    1229
 k-point  59 :   0.2500-0.1250-0.0000  plane waves:    1216
 k-point  60 :   0.3750-0.1250 0.0000  plane waves:    1228
 k-point  61 :   0.5000-0.1250-0.0000  plane waves:    1238
 k-point  62 :  -0.3750-0.1250 0.0000  plane waves:    1225
 k-point  63 :  -0.2500-0.1250 0.0000  plane waves:    1236
 k-point  64 :  -0.1250-0.1250 0.0000  plane waves:    1233
 k-point  65 :  -0.0000 0.0000 0.1667  plane waves:    1231
 k-point  66 :   0.1250 0.0000 0.1667  plane waves:    1234
 k-point  67 :   0.2500 0.0000 0.1667  plane waves:    1229
 k-point  68 :   0.3750 0.0000 0.1667  plane waves:    1230
 k-point  69 :   0.5000 0.0000 0.1667  plane waves:    1234
 k-point  70 :  -0.3750-0.0000 0.1667  plane waves:    1230
 k-point  71 :  -0.2500-0.0000 0.1667  plane waves:    1229
 k-point  72 :  -0.1250-0.0000 0.1667  plane waves:    1234
 k-point  73 :   0.0000 0.1250 0.1667  plane waves:    1234
 k-point  74 :   0.1250 0.1250 0.1667  plane waves:    1228
 k-point  75 :   0.2500 0.1250 0.1667  plane waves:    1226
 k-point  76 :   0.3750 0.1250 0.1667  plane waves:    1224
 k-point  77 :   0.5000 0.1250 0.1667  plane waves:    1231
 k-point  78 :  -0.3750 0.1250 0.1667  plane waves:    1227
 k-point  79 :  -0.2500 0.1250 0.1667  plane waves:    1223
 k-point  80 :  -0.1250 0.1250 0.1667  plane waves:    1228
 k-point  81 :   0.0000 0.2500 0.1667  plane waves:    1229
 k-point  82 :   0.1250 0.2500 0.1667  plane waves:    1226
 k-point  83 :   0.2500 0.2500 0.1667  plane waves:    1230
 k-point  84 :   0.3750 0.2500 0.1667  plane waves:    1225
 k-point  85 :   0.5000 0.2500 0.1667  plane waves:    1230
 k-point  86 :  -0.3750 0.2500 0.1667  plane waves:    1231
 k-point  87 :  -0.2500 0.2500 0.1667  plane waves:    1224
 k-point  88 :  -0.1250 0.2500 0.1667  plane waves:    1223
 k-point  89 :   0.0000 0.3750 0.1667  plane waves:    1230
 k-point  90 :   0.1250 0.3750 0.1667  plane waves:    1224
 k-point  91 :   0.2500 0.3750 0.1667  plane waves:    1225
 k-point  92 :   0.3750 0.3750 0.1667  plane waves:    1218
 k-point  93 :   0.5000 0.3750 0.1667  plane waves:    1225
 k-point  94 :  -0.3750 0.3750 0.1667  plane waves:    1225
 k-point  95 :  -0.2500 0.3750 0.1667  plane waves:    1231
 k-point  96 :  -0.1250 0.3750 0.1667  plane waves:    1227
 k-point  97 :   0.0000 0.5000 0.1667  plane waves:    1234
 k-point  98 :   0.1250 0.5000 0.1667  plane waves:    1231
 k-point  99 :   0.2500 0.5000 0.1667  plane waves:    1230
 k-point 100 :   0.3750 0.5000 0.1667  plane waves:    1225
 k-point 101 :   0.5000 0.5000 0.1667  plane waves:    1222
 k-point 102 :  -0.3750 0.5000 0.1667  plane waves:    1225
 k-point 103 :  -0.2500 0.5000 0.1667  plane waves:    1230
 k-point 104 :  -0.1250 0.5000 0.1667  plane waves:    1231
 k-point 105 :  -0.0000-0.3750 0.1667  plane waves:    1230
 k-point 106 :   0.1250-0.3750 0.1667  plane waves:    1227
 k-point 107 :   0.2500-0.3750 0.1667  plane waves:    1231
 k-point 108 :   0.3750-0.3750 0.1667  plane waves:    1225
 k-point 109 :   0.5000-0.3750 0.1667  plane waves:    1225
 k-point 110 :  -0.3750-0.3750 0.1667  plane waves:    1218
 k-point 111 :  -0.2500-0.3750 0.1667  plane waves:    1225
 k-point 112 :  -0.1250-0.3750 0.1667  plane waves:    1224
 k-point 113 :  -0.0000-0.2500 0.1667  plane waves:    1229
 k-point 114 :   0.1250-0.2500 0.1667  plane waves:    1223
 k-point 115 :   0.2500-0.2500 0.1667  plane waves:    1224
 k-point 116 :   0.3750-0.2500 0.1667  plane waves:    1231
 k-point 117 :   0.5000-0.2500 0.1667  plane waves:    1230
 k-point 118 :  -0.3750-0.2500 0.1667  plane waves:    1225
 k-point 119 :  -0.2500-0.2500 0.1667  plane waves:    1230
 k-point 120 :  -0.1250-0.2500 0.1667  plane waves:    1226
 k-point 121 :  -0.0000-0.1250 0.1667  plane waves:    1234
 k-point 122 :   0.1250-0.1250 0.1667  plane waves:    1228
 k-point 123 :   0.2500-0.1250 0.1667  plane waves:    1223
 k-point 124 :   0.3750-0.1250 0.1667  plane waves:    1227
 k-point 125 :   0.5000-0.1250 0.1667  plane waves:    1231
 k-point 126 :  -0.3750-0.1250 0.1667  plane waves:    1224
 k-point 127 :  -0.2500-0.1250 0.1667  plane waves:    1226
 k-point 128 :  -0.1250-0.1250 0.1667  plane waves:    1228
 k-point 129 :  -0.0000 0.0000 0.3333  plane waves:    1247
 k-point 130 :   0.1250 0.0000 0.3333  plane waves:    1236
 k-point 131 :   0.2500 0.0000 0.3333  plane waves:    1224
 k-point 132 :   0.3750 0.0000 0.3333  plane waves:    1221
 k-point 133 :   0.5000 0.0000 0.3333  plane waves:    1226
 k-point 134 :  -0.3750-0.0000 0.3333  plane waves:    1221
 k-point 135 :  -0.2500-0.0000 0.3333  plane waves:    1224
 k-point 136 :  -0.1250 0.0000 0.3333  plane waves:    1236
 k-point 137 :   0.0000 0.1250 0.3333  plane waves:    1236
 k-point 138 :   0.1250 0.1250 0.3333  plane waves:    1228
 k-point 139 :   0.2500 0.1250 0.3333  plane waves:    1230
 k-point 140 :   0.3750 0.1250 0.3333  plane waves:    1229
 k-point 141 :   0.5000 0.1250 0.3333  plane waves:    1226
 k-point 142 :  -0.3750 0.1250 0.3333  plane waves:    1229
 k-point 143 :  -0.2500 0.1250 0.3333  plane waves:    1229
 k-point 144 :  -0.1250 0.1250 0.3333  plane waves:    1241
 k-point 145 :   0.0000 0.2500 0.3333  plane waves:    1224
 k-point 146 :   0.1250 0.2500 0.3333  plane waves:    1231
 k-point 147 :   0.2500 0.2500 0.3333  plane waves:    1227
 k-point 148 :   0.3750 0.2500 0.3333  plane waves:    1229
 k-point 149 :   0.5000 0.2500 0.3333  plane waves:    1221
 k-point 150 :  -0.3750 0.2500 0.3333  plane waves:    1218
 k-point 151 :  -0.2500 0.2500 0.3333  plane waves:    1228
 k-point 152 :  -0.1250 0.2500 0.3333  plane waves:    1229
 k-point 153 :  -0.0000 0.3750 0.3333  plane waves:    1221
 k-point 154 :   0.1250 0.3750 0.3333  plane waves:    1229
 k-point 155 :   0.2500 0.3750 0.3333  plane waves:    1228
 k-point 156 :   0.3750 0.3750 0.3333  plane waves:    1217
 k-point 157 :   0.5000 0.3750 0.3333  plane waves:    1216
 k-point 158 :  -0.3750 0.3750 0.3333  plane waves:    1215
 k-point 159 :  -0.2500 0.3750 0.3333  plane waves:    1218
 k-point 160 :  -0.1250 0.3750 0.3333  plane waves:    1229
 k-point 161 :   0.0000 0.5000 0.3333  plane waves:    1226
 k-point 162 :   0.1250 0.5000 0.3333  plane waves:    1226
 k-point 163 :   0.2500 0.5000 0.3333  plane waves:    1221
 k-point 164 :   0.3750 0.5000 0.3333  plane waves:    1216
 k-point 165 :   0.5000 0.5000 0.3333  plane waves:    1212
 k-point 166 :  -0.3750 0.5000 0.3333  plane waves:    1216
 k-point 167 :  -0.2500 0.5000 0.3333  plane waves:    1221
 k-point 168 :  -0.1250 0.5000 0.3333  plane waves:    1226
 k-point 169 :  -0.0000-0.3750 0.3333  plane waves:    1221
 k-point 170 :   0.1250-0.3750 0.3333  plane waves:    1229
 k-point 171 :   0.2500-0.3750 0.3333  plane waves:    1218
 k-point 172 :   0.3750-0.3750 0.3333  plane waves:    1215
 k-point 173 :   0.5000-0.3750 0.3333  plane waves:    1216
 k-point 174 :  -0.3750-0.3750 0.3333  plane waves:    1217
 k-point 175 :  -0.2500-0.3750 0.3333  plane waves:    1229
 k-point 176 :  -0.1250-0.3750 0.3333  plane waves:    1229
 k-point 177 :  -0.0000-0.2500 0.3333  plane waves:    1224
 k-point 178 :   0.1250-0.2500 0.3333  plane waves:    1229
 k-point 179 :   0.2500-0.2500 0.3333  plane waves:    1228
 k-point 180 :   0.3750-0.2500 0.3333  plane waves:    1218
 k-point 181 :   0.5000-0.2500 0.3333  plane waves:    1221
 k-point 182 :  -0.3750-0.2500 0.3333  plane waves:    1228
 k-point 183 :  -0.2500-0.2500 0.3333  plane waves:    1227
 k-point 184 :  -0.1250-0.2500 0.3333  plane waves:    1230
 k-point 185 :  -0.0000-0.1250 0.3333  plane waves:    1236
 k-point 186 :   0.1250-0.1250 0.3333  plane waves:    1241
 k-point 187 :   0.2500-0.1250 0.3333  plane waves:    1229
 k-point 188 :   0.3750-0.1250 0.3333  plane waves:    1229
 k-point 189 :   0.5000-0.1250 0.3333  plane waves:    1226
 k-point 190 :  -0.3750-0.1250 0.3333  plane waves:    1229
 k-point 191 :  -0.2500-0.1250 0.3333  plane waves:    1231
 k-point 192 :  -0.1250-0.1250 0.3333  plane waves:    1228
 k-point 193 :  -0.0000 0.0000 0.5000  plane waves:    1242
 k-point 194 :   0.1250-0.0000 0.5000  plane waves:    1232
 k-point 195 :   0.2500 0.0000 0.5000  plane waves:    1234
 k-point 196 :   0.3750 0.0000 0.5000  plane waves:    1224
 k-point 197 :   0.5000 0.0000 0.5000  plane waves:    1224
 k-point 198 :  -0.3750-0.0000 0.5000  plane waves:    1224
 k-point 199 :  -0.2500-0.0000 0.5000  plane waves:    1234
 k-point 200 :  -0.1250-0.0000 0.5000  plane waves:    1232
 k-point 201 :   0.0000 0.1250 0.5000  plane waves:    1232
 k-point 202 :   0.1250 0.1250 0.5000  plane waves:    1236
 k-point 203 :   0.2500 0.1250 0.5000  plane waves:    1230
 k-point 204 :   0.3750 0.1250 0.5000  plane waves:    1226
 k-point 205 :   0.5000 0.1250 0.5000  plane waves:    1228
 k-point 206 :  -0.3750 0.1250 0.5000  plane waves:    1226
 k-point 207 :  -0.2500 0.1250 0.5000  plane waves:    1236
 k-point 208 :  -0.1250 0.1250 0.5000  plane waves:    1236
 k-point 209 :   0.0000 0.2500 0.5000  plane waves:    1234
 k-point 210 :   0.1250 0.2500 0.5000  plane waves:    1230
 k-point 211 :   0.2500 0.2500 0.5000  plane waves:    1240
 k-point 212 :   0.3750 0.2500 0.5000  plane waves:    1226
 k-point 213 :   0.5000 0.2500 0.5000  plane waves:    1218
 k-point 214 :  -0.3750 0.2500 0.5000  plane waves:    1218
 k-point 215 :  -0.2500 0.2500 0.5000  plane waves:    1236
 k-point 216 :  -0.1250 0.2500 0.5000  plane waves:    1236
 k-point 217 :   0.0000 0.3750 0.5000  plane waves:    1224
 k-point 218 :   0.1250 0.3750 0.5000  plane waves:    1226
 k-point 219 :   0.2500 0.3750 0.5000  plane waves:    1226
 k-point 220 :   0.3750 0.3750 0.5000  plane waves:    1226
 k-point 221 :   0.5000 0.3750 0.5000  plane waves:    1216
 k-point 222 :  -0.3750 0.3750 0.5000  plane waves:    1204
 k-point 223 :  -0.2500 0.3750 0.5000  plane waves:    1218
 k-point 224 :  -0.1250 0.3750 0.5000  plane waves:    1226
 k-point 225 :   0.0000 0.5000 0.5000  plane waves:    1224
 k-point 226 :   0.1250 0.5000 0.5000  plane waves:    1228
 k-point 227 :   0.2500 0.5000 0.5000  plane waves:    1218
 k-point 228 :   0.3750 0.5000 0.5000  plane waves:    1216
 k-point 229 :   0.5000 0.5000 0.5000  plane waves:    1212
 k-point 230 :  -0.3750 0.5000 0.5000  plane waves:    1216
 k-point 231 :  -0.2500 0.5000 0.5000  plane waves:    1218
 k-point 232 :  -0.1250 0.5000 0.5000  plane waves:    1228
 k-point 233 :   0.0000-0.3750 0.5000  plane waves:    1224
 k-point 234 :   0.1250-0.3750 0.5000  plane waves:    1226
 k-point 235 :   0.2500-0.3750 0.5000  plane waves:    1218
 k-point 236 :   0.3750-0.3750 0.5000  plane waves:    1204
 k-point 237 :   0.5000-0.3750 0.5000  plane waves:    1216
 k-point 238 :  -0.3750-0.3750 0.5000  plane waves:    1226
 k-point 239 :  -0.2500-0.3750 0.5000  plane waves:    1226
 k-point 240 :  -0.1250-0.3750 0.5000  plane waves:    1226
 k-point 241 :  -0.0000-0.2500 0.5000  plane waves:    1234
 k-point 242 :   0.1250-0.2500 0.5000  plane waves:    1236
 k-point 243 :   0.2500-0.2500 0.5000  plane waves:    1236
 k-point 244 :   0.3750-0.2500 0.5000  plane waves:    1218
 k-point 245 :   0.5000-0.2500 0.5000  plane waves:    1218
 k-point 246 :  -0.3750-0.2500 0.5000  plane waves:    1226
 k-point 247 :  -0.2500-0.2500 0.5000  plane waves:    1240
 k-point 248 :  -0.1250-0.2500 0.5000  plane waves:    1230
 k-point 249 :  -0.0000-0.1250 0.5000  plane waves:    1232
 k-point 250 :   0.1250-0.1250 0.5000  plane waves:    1236
 k-point 251 :   0.2500-0.1250 0.5000  plane waves:    1236
 k-point 252 :   0.3750-0.1250 0.5000  plane waves:    1226
 k-point 253 :   0.5000-0.1250 0.5000  plane waves:    1228
 k-point 254 :  -0.3750-0.1250 0.5000  plane waves:    1226
 k-point 255 :  -0.2500-0.1250 0.5000  plane waves:    1230
 k-point 256 :  -0.1250-0.1250 0.5000  plane waves:    1236
 k-point 257 :   0.0000-0.0000-0.3333  plane waves:    1247
 k-point 258 :   0.1250-0.0000-0.3333  plane waves:    1236
 k-point 259 :   0.2500 0.0000-0.3333  plane waves:    1224
 k-point 260 :   0.3750 0.0000-0.3333  plane waves:    1221
 k-point 261 :   0.5000 0.0000-0.3333  plane waves:    1226
 k-point 262 :  -0.3750-0.0000-0.3333  plane waves:    1221
 k-point 263 :  -0.2500-0.0000-0.3333  plane waves:    1224
 k-point 264 :  -0.1250-0.0000-0.3333  plane waves:    1236
 k-point 265 :   0.0000 0.1250-0.3333  plane waves:    1236
 k-point 266 :   0.1250 0.1250-0.3333  plane waves:    1228
 k-point 267 :   0.2500 0.1250-0.3333  plane waves:    1231
 k-point 268 :   0.3750 0.1250-0.3333  plane waves:    1229
 k-point 269 :   0.5000 0.1250-0.3333  plane waves:    1226
 k-point 270 :  -0.3750 0.1250-0.3333  plane waves:    1229
 k-point 271 :  -0.2500 0.1250-0.3333  plane waves:    1229
 k-point 272 :  -0.1250 0.1250-0.3333  plane waves:    1241
 k-point 273 :   0.0000 0.2500-0.3333  plane waves:    1224
 k-point 274 :   0.1250 0.2500-0.3333  plane waves:    1230
 k-point 275 :   0.2500 0.2500-0.3333  plane waves:    1227
 k-point 276 :   0.3750 0.2500-0.3333  plane waves:    1228
 k-point 277 :   0.5000 0.2500-0.3333  plane waves:    1221
 k-point 278 :  -0.3750 0.2500-0.3333  plane waves:    1218
 k-point 279 :  -0.2500 0.2500-0.3333  plane waves:    1228
 k-point 280 :  -0.1250 0.2500-0.3333  plane waves:    1229
 k-point 281 :   0.0000 0.3750-0.3333  plane waves:    1221
 k-point 282 :   0.1250 0.3750-0.3333  plane waves:    1229
 k-point 283 :   0.2500 0.3750-0.3333  plane waves:    1229
 k-point 284 :   0.3750 0.3750-0.3333  plane waves:    1217
 k-point 285 :   0.5000 0.3750-0.3333  plane waves:    1216
 k-point 286 :  -0.3750 0.3750-0.3333  plane waves:    1215
 k-point 287 :  -0.2500 0.3750-0.3333  plane waves:    1218
 k-point 288 :  -0.1250 0.3750-0.3333  plane waves:    1229
 k-point 289 :   0.0000 0.5000-0.3333  plane waves:    1226
 k-point 290 :   0.1250 0.5000-0.3333  plane waves:    1226
 k-point 291 :   0.2500 0.5000-0.3333  plane waves:    1221
 k-point 292 :   0.3750 0.5000-0.3333  plane waves:    1216
 k-point 293 :   0.5000 0.5000-0.3333  plane waves:    1212
 k-point 294 :  -0.3750 0.5000-0.3333  plane waves:    1216
 k-point 295 :  -0.2500 0.5000-0.3333  plane waves:    1221
 k-point 296 :  -0.1250 0.5000-0.3333  plane waves:    1226
 k-point 297 :   0.0000-0.3750-0.3333  plane waves:    1221
 k-point 298 :   0.1250-0.3750-0.3333  plane waves:    1229
 k-point 299 :   0.2500-0.3750-0.3333  plane waves:    1218
 k-point 300 :   0.3750-0.3750-0.3333  plane waves:    1215
 k-point 301 :   0.5000-0.3750-0.3333  plane waves:    1216
 k-point 302 :  -0.3750-0.3750-0.3333  plane waves:    1217
 k-point 303 :  -0.2500-0.3750-0.3333  plane waves:    1228
 k-point 304 :  -0.1250-0.3750-0.3333  plane waves:    1229
 k-point 305 :  -0.0000-0.2500-0.3333  plane waves:    1224
 k-point 306 :   0.1250-0.2500-0.3333  plane waves:    1229
 k-point 307 :   0.2500-0.2500-0.3333  plane waves:    1228
 k-point 308 :   0.3750-0.2500-0.3333  plane waves:    1218
 k-point 309 :   0.5000-0.2500-0.3333  plane waves:    1221
 k-point 310 :  -0.3750-0.2500-0.3333  plane waves:    1229
 k-point 311 :  -0.2500-0.2500-0.3333  plane waves:    1227
 k-point 312 :  -0.1250-0.2500-0.3333  plane waves:    1231
 k-point 313 :  -0.0000-0.1250-0.3333  plane waves:    1236
 k-point 314 :   0.1250-0.1250-0.3333  plane waves:    1241
 k-point 315 :   0.2500-0.1250-0.3333  plane waves:    1229
 k-point 316 :   0.3750-0.1250-0.3333  plane waves:    1229
 k-point 317 :   0.5000-0.1250-0.3333  plane waves:    1226
 k-point 318 :  -0.3750-0.1250-0.3333  plane waves:    1229
 k-point 319 :  -0.2500-0.1250-0.3333  plane waves:    1230
 k-point 320 :  -0.1250-0.1250-0.3333  plane waves:    1228
 k-point 321 :   0.0000-0.0000-0.1667  plane waves:    1231
 k-point 322 :   0.1250 0.0000-0.1667  plane waves:    1234
 k-point 323 :   0.2500 0.0000-0.1667  plane waves:    1229
 k-point 324 :   0.3750 0.0000-0.1667  plane waves:    1230
 k-point 325 :   0.5000 0.0000-0.1667  plane waves:    1234
 k-point 326 :  -0.3750-0.0000-0.1667  plane waves:    1230
 k-point 327 :  -0.2500-0.0000-0.1667  plane waves:    1229
 k-point 328 :  -0.1250-0.0000-0.1667  plane waves:    1234
 k-point 329 :   0.0000 0.1250-0.1667  plane waves:    1234
 k-point 330 :   0.1250 0.1250-0.1667  plane waves:    1228
 k-point 331 :   0.2500 0.1250-0.1667  plane waves:    1226
 k-point 332 :   0.3750 0.1250-0.1667  plane waves:    1224
 k-point 333 :   0.5000 0.1250-0.1667  plane waves:    1231
 k-point 334 :  -0.3750 0.1250-0.1667  plane waves:    1227
 k-point 335 :  -0.2500 0.1250-0.1667  plane waves:    1223
 k-point 336 :  -0.1250 0.1250-0.1667  plane waves:    1228
 k-point 337 :   0.0000 0.2500-0.1667  plane waves:    1229
 k-point 338 :   0.1250 0.2500-0.1667  plane waves:    1226
 k-point 339 :   0.2500 0.2500-0.1667  plane waves:    1230
 k-point 340 :   0.3750 0.2500-0.1667  plane waves:    1225
 k-point 341 :   0.5000 0.2500-0.1667  plane waves:    1230
 k-point 342 :  -0.3750 0.2500-0.1667  plane waves:    1231
 k-point 343 :  -0.2500 0.2500-0.1667  plane waves:    1224
 k-point 344 :  -0.1250 0.2500-0.1667  plane waves:    1223
 k-point 345 :   0.0000 0.3750-0.1667  plane waves:    1230
 k-point 346 :   0.1250 0.3750-0.1667  plane waves:    1224
 k-point 347 :   0.2500 0.3750-0.1667  plane waves:    1225
 k-point 348 :   0.3750 0.3750-0.1667  plane waves:    1218
 k-point 349 :   0.5000 0.3750-0.1667  plane waves:    1225
 k-point 350 :  -0.3750 0.3750-0.1667  plane waves:    1225
 k-point 351 :  -0.2500 0.3750-0.1667  plane waves:    1231
 k-point 352 :  -0.1250 0.3750-0.1667  plane waves:    1227
 k-point 353 :   0.0000 0.5000-0.1667  plane waves:    1234
 k-point 354 :   0.1250 0.5000-0.1667  plane waves:    1231
 k-point 355 :   0.2500 0.5000-0.1667  plane waves:    1230
 k-point 356 :   0.3750 0.5000-0.1667  plane waves:    1225
 k-point 357 :   0.5000 0.5000-0.1667  plane waves:    1222
 k-point 358 :  -0.3750 0.5000-0.1667  plane waves:    1225
 k-point 359 :  -0.2500 0.5000-0.1667  plane waves:    1230
 k-point 360 :  -0.1250 0.5000-0.1667  plane waves:    1231
 k-point 361 :  -0.0000-0.3750-0.1667  plane waves:    1230
 k-point 362 :   0.1250-0.3750-0.1667  plane waves:    1227
 k-point 363 :   0.2500-0.3750-0.1667  plane waves:    1231
 k-point 364 :   0.3750-0.3750-0.1667  plane waves:    1225
 k-point 365 :   0.5000-0.3750-0.1667  plane waves:    1225
 k-point 366 :  -0.3750-0.3750-0.1667  plane waves:    1218
 k-point 367 :  -0.2500-0.3750-0.1667  plane waves:    1225
 k-point 368 :  -0.1250-0.3750-0.1667  plane waves:    1224
 k-point 369 :  -0.0000-0.2500-0.1667  plane waves:    1229
 k-point 370 :   0.1250-0.2500-0.1667  plane waves:    1223
 k-point 371 :   0.2500-0.2500-0.1667  plane waves:    1224
 k-point 372 :   0.3750-0.2500-0.1667  plane waves:    1231
 k-point 373 :   0.5000-0.2500-0.1667  plane waves:    1230
 k-point 374 :  -0.3750-0.2500-0.1667  plane waves:    1225
 k-point 375 :  -0.2500-0.2500-0.1667  plane waves:    1230
 k-point 376 :  -0.1250-0.2500-0.1667  plane waves:    1226
 k-point 377 :  -0.0000-0.1250-0.1667  plane waves:    1234
 k-point 378 :   0.1250-0.1250-0.1667  plane waves:    1228
 k-point 379 :   0.2500-0.1250-0.1667  plane waves:    1223
 k-point 380 :   0.3750-0.1250-0.1667  plane waves:    1227
 k-point 381 :   0.5000-0.1250-0.1667  plane waves:    1231
 k-point 382 :  -0.3750-0.1250-0.1667  plane waves:    1224
 k-point 383 :  -0.2500-0.1250-0.1667  plane waves:    1226
 k-point 384 :  -0.1250-0.1250-0.1667  plane waves:    1228

 maximum and minimum number of plane-waves per node :      1247     1204

 maximum number of plane-waves:      1247
 maximum index in each direction: 
   IXMAX=    6   IYMAX=    6   IZMAX=    9
   IXMIN=   -6   IYMIN=   -6   IZMIN=   -9


 serial   3D FFT for wavefunctions
 parallel 3D FFT for charge:
    minimum data exchange during FFTs selected (reduces bandwidth)


 total amount of memory used by VASP MPI-rank0   177935. kBytes
=======================================================================

   base      :      30000. kBytes
   nonl-proj :     138098. kBytes
   fftplans  :        347. kBytes
   grid      :       1368. kBytes
   one-center:         62. kBytes
   wavefun   :       8060. kBytes
 
     INWAV:  cpu time      0.0000: real time      0.0000
 Broyden mixing: mesh for mixing (old mesh)
   NGX = 11   NGY = 11   NGZ = 19
  (NGX  = 48   NGY  = 48   NGZ  = 80)
  gives a total of   2299 points

 initial charge density was supplied:
 charge density of overlapping atoms calculated
 number of electron      36.0000000 magnetization 
 keeping initial charge density in first step


--------------------------------------------------------------------------------------------------------


 Maximum index for augmentation-charges         1103 (set IRDMAX)


--------------------------------------------------------------------------------------------------------


 First call to EWALD:  gamma=   0.533
 Maximum number of real-space cells 3x 3x 2
 Maximum number of reciprocal cells 2x 2x 4

    FEWALD:  cpu time      0.0016: real time      0.0018


--------------------------------------- Iteration      1(   1)  ---------------------------------------


    POTLOK:  cpu time      0.0111: real time      0.0253
    SETDIJ:  cpu time      0.0047: real time      0.0094
     EDDAV:  cpu time      4.7240: real time      4.7375
       DOS:  cpu time      0.0034: real time      0.0067
    --------------------------------------------
      LOOP:  cpu time      4.7433: real time      4.7789

 eigenvalue-minimisations  : 24576
 total energy-change (2. order) : 0.5785726E+02  (-0.2305548E+04)
 number of electron      36.0000000 magnetization 
 augmentation part       36.0000000 magnetization 

 Free energy of the ion-electron system (eV)
  ---------------------------------------------------
  alpha Z        PSCENC =       245.59616491
  Ewald energy   TEWEN  =     -3474.17764428
  -Hartree energ DENC   =      -989.50690283
  -exchange      EXHF   =         0.00000000
  -V(xc)+E(xc)   XCENC  =       130.98263633
  PAW double counting   =      3616.17691320    -4285.66495278
  entropy T*S    EENTRO =        -0.00052685
  eigenvalues    EBANDS =       -12.28102640
  atomic energy  EATOM  =      4826.73260078
  Solvation  Ediel_sol  =         0.00000000
  ---------------------------------------------------
  free energy    TOTEN  =        57.85726207 eV

  energy without entropy =       57.85778893  energy(sigma->0) =       57.85752550


--------------------------------------------------------------------------------------------------------




--------------------------------------- Iteration      1(   2)  ---------------------------------------


     EDDAV:  cpu time      6.1137: real time      6.1254
       DOS:  cpu time      0.0021: real time      0.0052
    --------------------------------------------
      LOOP:  cpu time      6.1157: real time      6.1306

 eigenvalue-minimisations  : 29088
 total energy-change (2. order) :-0.8310001E+02  (-0.8249263E+02)
 number of electron      36.0000000 magnetization 
 augmentation part       36.0000000 magnetization 

 Free energy of the ion-electron system (eV)
  ---------------------------------------------------
  alpha Z        PSCENC =       245.59616491
  Ewald energy   TEWEN  =     -3474.17764428
  -Hartree energ DENC   =      -989.50690283
  -exchange      EXHF   =         0.00000000
  -V(xc)+E(xc)   XCENC  =       130.98263633
  PAW double counting   =      3616.17691320    -4285.66495278
  entropy T*S    EENTRO =        -0.00000000
  eigenvalues    EBANDS =       -95.38156425
  atomic energy  EATOM  =      4826.73260078
  Solvation  Ediel_sol  =         0.00000000
  ---------------------------------------------------
  free energy    TOTEN  =       -25.24274892 eV

  energy without entropy =      -25.24274892  energy(sigma->0) =      -25.24274892


--------------------------------------------------------------------------------------------------------




--------------------------------------- Iteration      1(   3)  ---------------------------------------


     EDDAV:  cpu time      6.0083: real time      6.0191
       DOS:  cpu time      0.0017: real time      0.0017
    --------------------------------------------
      LOOP:  cpu time      6.0100: real time      6.0208

 eigenvalue-minimisations  : 28320
 total energy-change (2. order) :-0.1199693E+01  (-0.1199693E+01)
 number of electron      36.0000000 magnetization 
 augmentation part       36.0000000 magnetization 

 Free energy of the ion-electron system (eV)
  ---------------------------------------------------
  alpha Z        PSCENC =       245.59616491
  Ewald energy   TEWEN  =     -3474.17764428
  -Hartree energ DENC   =      -989.50690283
  -exchange      EXHF   =         0.00000000
  -V(xc)+E(xc)   XCENC  =       130.98263633
  PAW double counting   =      3616.17691320    -4285.66495278
  entropy T*S    EENTRO =        -0.00000000
  eigenvalues    EBANDS =       -96.58125711
  atomic energy  EATOM  =      4826.73260078
  Solvation  Ediel_sol  =         0.00000000
  ---------------------------------------------------
  free energy    TOTEN  =       -26.44244177 eV

  energy without entropy =      -26.44244177  energy(sigma->0) =      -26.44244177


--------------------------------------------------------------------------------------------------------




--------------------------------------- Iteration      1(   4)  ---------------------------------------


     EDDAV:  cpu time     12.2721: real time     12.3071
       DOS:  cpu time      0.0019: real time      0.0020
    --------------------------------------------
      LOOP:  cpu time     12.2740: real time     12.3091

 eigenvalue-minimisations  : 42272
 total energy-change (2. order) :-0.4719452E-02  (-0.4719452E-02)
 number of electron      36.0000000 magnetization 
 augmentation part       36.0000000 magnetization 

 Free energy of the ion-electron system (eV)
  ---------------------------------------------------
  alpha Z        PSCENC =       245.59616491
  Ewald energy   TEWEN  =     -3474.17764428
  -Hartree energ DENC   =      -989.50690283
  -exchange      EXHF   =         0.00000000
  -V(xc)+E(xc)   XCENC  =       130.98263633
  PAW double counting   =      3616.17691320    -4285.66495278
  entropy T*S    EENTRO =        -0.00000000
  eigenvalues    EBANDS =       -96.58597656
  atomic energy  EATOM  =      4826.73260078
  Solvation  Ediel_sol  =         0.00000000
  ---------------------------------------------------
  free energy    TOTEN  =       -26.44716123 eV

  energy without entropy =      -26.44716123  energy(sigma->0) =      -26.44716123


--------------------------------------------------------------------------------------------------------




--------------------------------------- Iteration      1(   5)  ---------------------------------------


     EDDAV:  cpu time      6.6244: real time      6.6347
       DOS:  cpu time      0.0015: real time      0.0015
    CHARGE:  cpu time      0.1311: real time      0.1407
    MIXING:  cpu time      0.0029: real time      0.0150
    --------------------------------------------
      LOOP:  cpu time      6.7599: real time      6.7919

 eigenvalue-minimisations  : 29408
 total energy-change (2. order) :-0.4174253E-06  (-0.4174067E-06)
 number of electron      36.0000003 magnetization 
 augmentation part       17.6955287 magnetization 

 Broyden mixing:
  rms(total) = 0.11532E+01    rms(broyden)= 0.11531E+01
  rms(prec ) = 0.25879E+01
  weight for this iteration     100.00

 Free energy of the ion-electron system (eV)
  ---------------------------------------------------
  alpha Z        PSCENC =       245.59616491
  Ewald energy   TEWEN  =     -3474.17764428
  -Hartree energ DENC   =      -989.50690283
  -exchange      EXHF   =         0.00000000
  -V(xc)+E(xc)   XCENC  =       130.98263633
  PAW double counting   =      3616.17691320    -4285.66495278
  entropy T*S    EENTRO =        -0.00000000
  eigenvalues    EBANDS =       -96.58597697
  atomic energy  EATOM  =      4826.73260078
  Solvation  Ediel_sol  =         0.00000000
  ---------------------------------------------------
  free energy    TOTEN  =       -26.44716164 eV

  energy without entropy =      -26.44716164  energy(sigma->0) =      -26.44716164


--------------------------------------------------------------------------------------------------------




--------------------------------------- Iteration      1(   6)  ---------------------------------------


    POTLOK:  cpu time      0.0048: real time      0.0048
    SETDIJ:  cpu time      0.0022: real time      0.0022
     EDDAV:  cpu time      7.5634: real time      7.5806
       DOS:  cpu time      0.0020: real time      0.0020
    CHARGE:  cpu time      0.1337: real time      0.1337
    MIXING:  cpu time      0.0013: real time      0.0024
    --------------------------------------------
      LOOP:  cpu time      7.7073: real time      7.7257

 eigenvalue-minimisations  : 33216
 total energy-change (2. order) : 0.4380695E+01  (-0.2506906E+01)
 number of electron      36.0000003 magnetization 
 augmentation part       17.4527427 magnetization 

 Broyden mixing:
  rms(total) = 0.38568E+00    rms(broyden)= 0.38562E+00
  rms(prec ) = 0.52792E+00
  weight for this iteration     100.00

 eigenvalues of (default mixing * dielectric matrix)
  average eigenvalue GAMMA=   0.9423
  0.9423

 Free energy of the ion-electron system (eV)
  ---------------------------------------------------
  alpha Z        PSCENC =       245.59616491
  Ewald energy   TEWEN  =     -3474.17764428
  -Hartree energ DENC   =      -991.72726221
  -exchange      EXHF   =         0.00000000
  -V(xc)+E(xc)   XCENC  =       132.24754234
  PAW double counting   =      3921.20112219    -4589.16489019
  entropy T*S    EENTRO =        -0.00000000
  eigenvalues    EBANDS =       -92.77410000
  atomic energy  EATOM  =      4826.73260078
  Solvation  Ediel_sol  =         0.00000000
  ---------------------------------------------------
  free energy    TOTEN  =       -22.06646647 eV

  energy without entropy =      -22.06646647  energy(sigma->0) =      -22.06646647


--------------------------------------------------------------------------------------------------------




--------------------------------------- Iteration      1(   7)  ---------------------------------------


    POTLOK:  cpu time      0.0049: real time      0.0049
    SETDIJ:  cpu time      0.0022: real time      0.0022
     EDDAV:  cpu time      4.7542: real time      4.7613
       DOS:  cpu time      0.0014: real time      0.0014
    CHARGE:  cpu time      0.1596: real time      0.1597
    MIXING:  cpu time      0.0005: real time      0.0005
    --------------------------------------------
      LOOP:  cpu time      4.9227: real time      4.9301

 eigenvalue-minimisations  : 25216
 total energy-change (2. order) : 0.5200252E-01  (-0.2756385E-01)
 number of electron      36.0000003 magnetization 
 augmentation part       17.4161523 magnetization 

 Broyden mixing:
  rms(total) = 0.23722E+00    rms(broyden)= 0.23721E+00
  rms(prec ) = 0.32158E+00
  weight for this iteration     100.00

 eigenvalues of (default mixing * dielectric matrix)
  average eigenvalue GAMMA=   1.7309
  1.0400  2.4218

 Free energy of the ion-electron system (eV)
  ---------------------------------------------------
  alpha Z        PSCENC =       245.59616491
  Ewald energy   TEWEN  =     -3474.17764428
  -Hartree energ DENC   =      -989.89871750
  -exchange      EXHF   =         0.00000000
  -V(xc)+E(xc)   XCENC  =       132.21953684
  PAW double counting   =      4234.11569905    -4908.43811605
  entropy T*S    EENTRO =        -0.00000000
  eigenvalues    EBANDS =       -88.16398769
  atomic energy  EATOM  =      4826.73260078
  Solvation  Ediel_sol  =         0.00000000
  ---------------------------------------------------
  free energy    TOTEN  =       -22.01446394 eV

  energy without entropy =      -22.01446394  energy(sigma->0) =      -22.01446394


--------------------------------------------------------------------------------------------------------




--------------------------------------- Iteration      1(   8)  ---------------------------------------


    POTLOK:  cpu time      0.0047: real time      0.0047
    SETDIJ:  cpu time      0.0021: real time      0.0021
     EDDAV:  cpu time     11.0803: real time     11.1124
       DOS:  cpu time      0.0016: real time      0.0016
    CHARGE:  cpu time      0.1256: real time      0.1259
    MIXING:  cpu time      0.0004: real time      0.0003
    --------------------------------------------
      LOOP:  cpu time     11.2147: real time     11.2471

 eigenvalue-minimisations  : 40192
 total energy-change (2. order) : 0.2998591E-01  (-0.4853417E-02)
 number of electron      36.0000003 magnetization 
 augmentation part       17.3983203 magnetization 

 Broyden mixing:
  rms(total) = 0.26407E-01    rms(broyden)= 0.26404E-01
  rms(prec ) = 0.35080E-01
  weight for this iteration     100.00

 eigenvalues of (default mixing * dielectric matrix)
  average eigenvalue GAMMA=   1.5575
  2.2468  1.0431  1.3826

 Free energy of the ion-electron system (eV)
  ---------------------------------------------------
  alpha Z        PSCENC =       245.59616491
  Ewald energy   TEWEN  =     -3474.17764428
  -Hartree energ DENC   =      -984.84400762
  -exchange      EXHF   =         0.00000000
  -V(xc)+E(xc)   XCENC  =       132.03495408
  PAW double counting   =      4722.24142423    -5403.66742458
  entropy T*S    EENTRO =        -0.00000000
  eigenvalues    EBANDS =       -85.90054554
  atomic energy  EATOM  =      4826.73260078
  Solvation  Ediel_sol  =         0.00000000
  ---------------------------------------------------
  free energy    TOTEN  =       -21.98447803 eV

  energy without entropy =      -21.98447803  energy(sigma->0) =      -21.98447803


--------------------------------------------------------------------------------------------------------




--------------------------------------- Iteration      1(   9)  ---------------------------------------


    POTLOK:  cpu time      0.0045: real time      0.0046
    SETDIJ:  cpu time      0.0020: real time      0.0020
     EDDAV:  cpu time      5.9779: real time      5.9951
       DOS:  cpu time      0.0019: real time      0.0019
    CHARGE:  cpu time      0.1177: real time      0.1185
    MIXING:  cpu time      0.0005: real time      0.0005
    --------------------------------------------
      LOOP:  cpu time      6.1045: real time      6.1227

 eigenvalue-minimisations  : 28416
 total energy-change (2. order) : 0.5133002E-03  (-0.5742972E-03)
 number of electron      36.0000003 magnetization 
 augmentation part       17.4033318 magnetization 

 Broyden mixing:
  rms(total) = 0.10456E-01    rms(broyden)= 0.10455E-01
  rms(prec ) = 0.14526E-01
  weight for this iteration     100.00

 eigenvalues of (default mixing * dielectric matrix)
  average eigenvalue GAMMA=   1.7047
  1.0926  1.0926  2.4655  2.1679

 Free energy of the ion-electron system (eV)
  ---------------------------------------------------
  alpha Z        PSCENC =       245.59616491
  Ewald energy   TEWEN  =     -3474.17764428
  -Hartree energ DENC   =      -984.24252317
  -exchange      EXHF   =         0.00000000
  -V(xc)+E(xc)   XCENC  =       132.01295177
  PAW double counting   =      4705.49069127    -5386.00883082
  entropy T*S    EENTRO =        -0.00000000
  eigenvalues    EBANDS =       -87.38737518
  atomic energy  EATOM  =      4826.73260078
  Solvation  Ediel_sol  =         0.00000000
  ---------------------------------------------------
  free energy    TOTEN  =       -21.98396473 eV

  energy without entropy =      -21.98396473  energy(sigma->0) =      -21.98396473


--------------------------------------------------------------------------------------------------------




--------------------------------------- Iteration      1(  10)  ---------------------------------------


    POTLOK:  cpu time      0.0045: real time      0.0045
    SETDIJ:  cpu time      0.0020: real time      0.0020
     EDDAV:  cpu time      7.0144: real time      7.0357
       DOS:  cpu time      0.0014: real time      0.0014
    CHARGE:  cpu time      0.1208: real time      0.1208
    MIXING:  cpu time      0.0006: real time      0.0006
    --------------------------------------------
      LOOP:  cpu time      7.1436: real time      7.1649

 eigenvalue-minimisations  : 30560
 total energy-change (2. order) :-0.9152350E-04  (-0.6702928E-04)
 number of electron      36.0000003 magnetization 
 augmentation part       17.4040114 magnetization 

 Broyden mixing:
  rms(total) = 0.33909E-02    rms(broyden)= 0.33909E-02
  rms(prec ) = 0.53031E-02
  weight for this iteration     100.00

 eigenvalues of (default mixing * dielectric matrix)
  average eigenvalue GAMMA=   1.6760
  2.7095  2.2839  1.0177  1.0177  1.3515

 Free energy of the ion-electron system (eV)
  ---------------------------------------------------
  alpha Z        PSCENC =       245.59616491
  Ewald energy   TEWEN  =     -3474.17764428
  -Hartree energ DENC   =      -984.02309065
  -exchange      EXHF   =         0.00000000
  -V(xc)+E(xc)   XCENC  =       131.99849654
  PAW double counting   =      4713.95205654    -5394.69718111
  entropy T*S    EENTRO =        -0.00000000
  eigenvalues    EBANDS =       -87.36545898
  atomic energy  EATOM  =      4826.73260078
  Solvation  Ediel_sol  =         0.00000000
  ---------------------------------------------------
  free energy    TOTEN  =       -21.98405625 eV

  energy without entropy =      -21.98405625  energy(sigma->0) =      -21.98405625


--------------------------------------------------------------------------------------------------------




--------------------------------------- Iteration      1(  11)  ---------------------------------------


    POTLOK:  cpu time      0.0050: real time      0.0050
    SETDIJ:  cpu time      0.0021: real time      0.0021
     EDDAV:  cpu time      9.6423: real time      9.6590
       DOS:  cpu time      0.0016: real time      0.0016
    CHARGE:  cpu time      0.1298: real time      0.1299
    MIXING:  cpu time      0.0005: real time      0.0005
    --------------------------------------------
      LOOP:  cpu time      9.7813: real time      9.7980

 eigenvalue-minimisations  : 37248
 total energy-change (2. order) :-0.1350318E-06  (-0.8505709E-05)
 number of electron      36.0000003 magnetization 
 augmentation part       17.4033101 magnetization 

 Broyden mixing:
  rms(total) = 0.85541E-03    rms(broyden)= 0.85536E-03
  rms(prec ) = 0.10398E-02
  weight for this iteration     100.00

 eigenvalues of (default mixing * dielectric matrix)
  average eigenvalue GAMMA=   1.6741
  2.7636  2.5462  1.0191  1.0191  1.4724  1.2240

 Free energy of the ion-electron system (eV)
  ---------------------------------------------------
  alpha Z        PSCENC =       245.59616491
  Ewald energy   TEWEN  =     -3474.17764428
  -Hartree energ DENC   =      -984.06104856
  -exchange      EXHF   =         0.00000000
  -V(xc)+E(xc)   XCENC  =       132.00194391
  PAW double counting   =      4713.60609663    -5394.39452700
  entropy T*S    EENTRO =        -0.00000000
  eigenvalues    EBANDS =       -87.28764277
  atomic energy  EATOM  =      4826.73260078
  Solvation  Ediel_sol  =         0.00000000
  ---------------------------------------------------
  free energy    TOTEN  =       -21.98405639 eV

  energy without entropy =      -21.98405639  energy(sigma->0) =      -21.98405639


--------------------------------------------------------------------------------------------------------




--------------------------------------- Iteration      1(  12)  ---------------------------------------


    POTLOK:  cpu time      0.0050: real time      0.0050
    SETDIJ:  cpu time      0.0023: real time      0.0023
     EDDAV:  cpu time      7.9278: real time      7.9421
       DOS:  cpu time      0.0014: real time      0.0014
    CHARGE:  cpu time      0.1178: real time      0.1178
    MIXING:  cpu time      0.0004: real time      0.0004
    --------------------------------------------
      LOOP:  cpu time      8.0547: real time      8.0691

 eigenvalue-minimisations  : 32960
 total energy-change (2. order) :-0.1731296E-06  (-0.2276374E-06)
 number of electron      36.0000003 magnetization 
 augmentation part       17.4033208 magnetization 

 Broyden mixing:
  rms(total) = 0.48619E-03    rms(broyden)= 0.48617E-03
  rms(prec ) = 0.54440E-03
  weight for this iteration     100.00

 eigenvalues of (default mixing * dielectric matrix)
  average eigenvalue GAMMA=   1.6389
  2.7465  2.4993  1.9759  1.3300  1.0026  1.0026  0.9158

 Free energy of the ion-electron system (eV)
  ---------------------------------------------------
  alpha Z        PSCENC =       245.59616491
  Ewald energy   TEWEN  =     -3474.17764428
  -Hartree energ DENC   =      -984.09108117
  -exchange      EXHF   =         0.00000000
  -V(xc)+E(xc)   XCENC  =       132.00298128
  PAW double counting   =      4711.59548901    -5392.36209776
  entropy T*S    EENTRO =        -0.00000000
  eigenvalues    EBANDS =       -87.28046932
  atomic energy  EATOM  =      4826.73260078
  Solvation  Ediel_sol  =         0.00000000
  ---------------------------------------------------
  free energy    TOTEN  =       -21.98405656 eV

  energy without entropy =      -21.98405656  energy(sigma->0) =      -21.98405656


--------------------------------------------------------------------------------------------------------




--------------------------------------- Iteration      1(  13)  ---------------------------------------


    POTLOK:  cpu time      0.0046: real time      0.0046
    SETDIJ:  cpu time      0.0021: real time      0.0021
     EDDAV:  cpu time      7.2510: real time      7.2677
       DOS:  cpu time      0.0017: real time      0.0017
    CHARGE:  cpu time      0.1186: real time      0.1188
    MIXING:  cpu time      0.0004: real time      0.0004
    --------------------------------------------
      LOOP:  cpu time      7.3784: real time      7.3953

 eigenvalue-minimisations  : 31072
 total energy-change (2. order) : 0.1907456E-06  (-0.1035380E-07)
 number of electron      36.0000003 magnetization 
 augmentation part       17.4033411 magnetization 

 Broyden mixing:
  rms(total) = 0.10697E-03    rms(broyden)= 0.10697E-03
  rms(prec ) = 0.12991E-03
  weight for this iteration     100.00

 eigenvalues of (default mixing * dielectric matrix)
  average eigenvalue GAMMA=   1.7103
  2.9287  2.4582  2.3755  0.9915  1.0127  1.0127  1.4516  1.4516

 Free energy of the ion-electron system (eV)
  ---------------------------------------------------
  alpha Z        PSCENC =       245.59616491
  Ewald energy   TEWEN  =     -3474.17764428
  -Hartree energ DENC   =      -984.08841701
  -exchange      EXHF   =         0.00000000
  -V(xc)+E(xc)   XCENC  =       132.00287513
  PAW double counting   =      4712.04016409    -5392.80606122
  entropy T*S    EENTRO =        -0.00000000
  eigenvalues    EBANDS =       -87.28373877
  atomic energy  EATOM  =      4826.73260078
  Solvation  Ediel_sol  =         0.00000000
  ---------------------------------------------------
  free energy    TOTEN  =       -21.98405637 eV

  energy without entropy =      -21.98405637  energy(sigma->0) =      -21.98405637


--------------------------------------------------------------------------------------------------------




--------------------------------------- Iteration      1(  14)  ---------------------------------------


    POTLOK:  cpu time      0.0095: real time      0.0096
    SETDIJ:  cpu time      0.0022: real time      0.0022
     EDDAV:  cpu time      2.5766: real time      2.5817
       DOS:  cpu time      0.0020: real time      0.0020
    --------------------------------------------
      LOOP:  cpu time      2.5904: real time      2.5954

 eigenvalue-minimisations  : 13600
 total energy-change (2. order) : 0.6532537E-07  (-0.2066888E-08)
 number of electron      36.0000003 magnetization 
 augmentation part       17.4033411 magnetization 

 Free energy of the ion-electron system (eV)
  ---------------------------------------------------
  alpha Z        PSCENC =       245.59616491
  Ewald energy   TEWEN  =     -3474.17764428
  -Hartree energ DENC   =      -984.09077921
  -exchange      EXHF   =         0.00000000
  -V(xc)+E(xc)   XCENC  =       132.00295764
  PAW double counting   =      4712.05966846    -5392.82396073
  entropy T*S    EENTRO =        -0.00000000
  eigenvalues    EBANDS =       -87.28306387
  atomic energy  EATOM  =      4826.73260078
  Solvation  Ediel_sol  =         0.00000000
  ---------------------------------------------------
  free energy    TOTEN  =       -21.98405630 eV

  energy without entropy =      -21.98405630  energy(sigma->0) =      -21.98405630


--------------------------------------------------------------------------------------------------------




 average (electrostatic) potential at core
  the test charge radii are     1.0314  0.7089
  (the norm of the test charge is              1.0000)
       1 -61.2265       2 -61.2265       3 -59.3510       4 -59.3510
 
 
 
 E-fermi :   8.5193     XC(G=0): -13.0701     alpha+bet :-16.6556

 Fermi energy:         8.5193175649

 k-point     1 :       0.0000    0.0000    0.0000
  band No.  band energies     occupation 
      1      -9.7713      2.00000
      2      -8.2345      2.00000
      3      -5.9676      2.00000
      4      -5.9133      2.00000
      5      -5.8488      2.00000
      6      -5.6714      2.00000
      7      -5.6564      2.00000
      8      -5.5656      2.00000
      9      -5.5523      2.00000
     10      -5.4486      2.00000
     11      -5.3614      2.00000
     12      -3.7227      2.00000
     13      -0.0874      2.00000
     14       5.0628      2.00000
     15       6.8966      2.00000
     16       7.0817      2.00000
     17       8.0221      2.00000
     18       8.2865      2.00000
     19      10.9715      0.00000
     20      11.2690      0.00000
     21      17.3786      0.00000
     22      19.2828      0.00000
     23      20.7128      0.00000
     24      22.1404      0.00000
     25      22.3045      0.00000
     26      22.3049      0.00000
     27      22.4868      0.00000
     28      25.0549      0.00000
     29      26.1353      0.00000
     30      26.4243      0.00000
     31      28.0990      0.00000
     32      29.7521      0.00000

 k-point     2 :       0.1250    0.0000    0.0000
  band No.  band energies     occupation 
      1      -9.5513      2.00000
      2      -8.1288      2.00000
      3      -5.9639      2.00000
      4      -5.8932      2.00000
      5      -5.8210      2.00000
      6      -5.6767      2.00000
      7      -5.6656      2.00000
      8      -5.5868      2.00000
      9      -5.5551      2.00000
     10      -5.4773      2.00000
     11      -5.3885      2.00000
     12      -3.6667      2.00000
     13       0.1725      2.00000
     14       4.2244      2.00000
     15       6.1844      2.00000
     16       6.6057      2.00000
     17       7.7474      2.00000
     18       8.0610      2.00000
     19      11.9340      0.00000
     20      12.2834      0.00000
     21      17.6180      0.00000
     22      18.9389      0.00000
     23      19.7961      0.00000
     24      20.9006      0.00000
     25      21.8281      0.00000
     26      22.6016      0.00000
     27      23.1812      0.00000
     28      24.7382      0.00000
     29      26.7340      0.00000
     30      27.7228      0.00000
     31      29.1526      0.00000
     32      30.9219      0.00000

 k-point     3 :       0.2500    0.0000    0.0000
  band No.  band energies     occupation 
      1      -8.9455      2.00000
      2      -7.8726      2.00000
      3      -5.9614      2.00000
      4      -5.8755      2.00000
      5      -5.7528      2.00000
      6      -5.6984      2.00000
      7      -5.6622      2.00000
      8      -5.6220      2.00000
      9      -5.5740      2.00000
     10      -5.5041      2.00000
     11      -5.3995      2.00000
     12      -3.6106      2.00000
     13       0.8731      2.00000
     14       2.4090      2.00000
     15       4.2493      2.00000
     16       6.6752      2.00000
     17       7.0009      2.00000
     18       8.0593      2.00000
     19      13.4026      0.00000
     20      13.9453      0.00000
     21      17.3130      0.00000
     22      17.7180      0.00000
     23      18.5756      0.00000
     24      19.4993      0.00000
     25      22.6664      0.00000
     26      22.7762      0.00000
     27      23.9305      0.00000
     28      25.6781      0.00000
     29      27.1569      0.00000
     30      27.9358      0.00000
     31      29.8898      0.00000
     32      30.3277      0.00000

 k-point     4 :       0.3750    0.0000   -0.0000
  band No.  band energies     occupation 
      1      -8.1804      2.00000
      2      -7.6333      2.00000
      3      -5.9328      2.00000
      4      -5.8298      2.00000
      5      -5.7784      2.00000
      6      -5.7133      2.00000
      7      -5.6908      2.00000
      8      -5.6377      2.00000
      9      -5.5437      2.00000
     10      -5.4267      2.00000
     11      -5.2764      2.00000
     12      -3.8823      2.00000
     13       0.8119      2.00000
     14       2.2358      2.00000
     15       2.5118      2.00000
     16       5.6697      2.00000
     17       6.9928      2.00000
     18       8.1045      2.00000
     19      14.6449      0.00000
     20      15.4051      0.00000
     21      16.4724      0.00000
     22      17.0131      0.00000
     23      17.7930      0.00000
     24      18.3149      0.00000
     25      22.6477      0.00000
     26      23.5954      0.00000
     27      23.9731      0.00000
     28      26.2174      0.00000
     29      27.9661      0.00000
     30      28.5773      0.00000
     31      30.0572      0.00000
     32      30.7970      0.00000

 k-point     5 :       0.5000    0.0000   -0.0000
  band No.  band energies     occupation 
      1      -7.7653      2.00000
      2      -7.5815      2.00000
      3      -5.9151      2.00000
      4      -5.7918      2.00000
      5      -5.7534      2.00000
      6      -5.7338      2.00000
      7      -5.6821      2.00000
      8      -5.6761      2.00000
      9      -5.5173      2.00000
     10      -5.4234      2.00000
     11      -4.7668      2.00000
     12      -4.5683      2.00000
     13       0.8086      2.00000
     14       1.2923      2.00000
     15       3.4053      2.00000
     16       4.5182      2.00000
     17       7.1299      2.00000
     18       8.1133      2.00000
     19      15.2825      0.00000
     20      15.7269      0.00000
     21      16.2709      0.00000
     22      17.2373      0.00000
     23      17.4469      0.00000
     24      17.6500      0.00000
     25      22.2615      0.00000
     26      22.9280      0.00000
     27      25.2935      0.00000
     28      25.4946      0.00000
     29      28.6178      0.00000
     30      28.8837      0.00000
     31      30.4079      0.00000
     32      31.1987      0.00000

 k-point     6 :      -0.3750   -0.0000    0.0000
  band No.  band energies     occupation 
      1      -8.1804      2.00000
      2      -7.6333      2.00000
      3      -5.9328      2.00000
      4      -5.8298      2.00000
      5      -5.7784      2.00000
      6      -5.7133      2.00000
      7      -5.6908      2.00000
      8      -5.6377      2.00000
      9      -5.5437      2.00000
     10      -5.4267      2.00000
     11      -5.2764      2.00000
     12      -3.8823      2.00000
     13       0.8119      2.00000
     14       2.2358      2.00000
     15       2.5118      2.00000
     16       5.6697      2.00000
     17       6.9928      2.00000
     18       8.1045      2.00000
     19      14.6449      0.00000
     20      15.4051      0.00000
     21      16.4724      0.00000
     22      17.0131      0.00000
     23      17.7930      0.00000
     24      18.3149      0.00000
     25      22.6477      0.00000
     26      23.5954      0.00000
     27      23.9731      0.00000
     28      26.2174      0.00000
     29      27.9661      0.00000
     30      28.5773      0.00000
     31      30.0572      0.00000
     32      30.7970      0.00000

 k-point     7 :      -0.2500   -0.0000   -0.0000
  band No.  band energies     occupation 
      1      -8.9455      2.00000
      2      -7.8726      2.00000
      3      -5.9614      2.00000
      4      -5.8755      2.00000
      5      -5.7528      2.00000
      6      -5.6984      2.00000
      7      -5.6622      2.00000
      8      -5.6220      2.00000
      9      -5.5740      2.00000
     10      -5.5041      2.00000
     11      -5.3995      2.00000
     12      -3.6106      2.00000
     13       0.8731      2.00000
     14       2.4090      2.00000
     15       4.2493      2.00000
     16       6.6752      2.00000
     17       7.0009      2.00000
     18       8.0593      2.00000
     19      13.4026      0.00000
     20      13.9453      0.00000
     21      17.3130      0.00000
     22      17.7180      0.00000
     23      18.5756      0.00000
     24      19.4993      0.00000
     25      22.6664      0.00000
     26      22.7762      0.00000
     27      23.9305      0.00000
     28      25.6781      0.00000
     29      27.1569      0.00000
     30      27.9358      0.00000
     31      29.8898      0.00000
     32      30.3277      0.00000

 k-point     8 :      -0.1250   -0.0000    0.0000
  band No.  band energies     occupation 
      1      -9.5513      2.00000
      2      -8.1288      2.00000
      3      -5.9639      2.00000
      4      -5.8932      2.00000
      5      -5.8210      2.00000
      6      -5.6767      2.00000
      7      -5.6656      2.00000
      8      -5.5868      2.00000
      9      -5.5551      2.00000
     10      -5.4773      2.00000
     11      -5.3885      2.00000
     12      -3.6667      2.00000
     13       0.1725      2.00000
     14       4.2244      2.00000
     15       6.1844      2.00000
     16       6.6057      2.00000
     17       7.7474      2.00000
     18       8.0610      2.00000
     19      11.9340      0.00000
     20      12.2834      0.00000
     21      17.6180      0.00000
     22      18.9389      0.00000
     23      19.7961      0.00000
     24      20.9006      0.00000
     25      21.8281      0.00000
     26      22.6016      0.00000
     27      23.1812      0.00000
     28      24.7382      0.00000
     29      26.7340      0.00000
     30      27.7228      0.00000
     31      29.1526      0.00000
     32      30.9219      0.00000

 k-point     9 :       0.0000    0.1250    0.0000
  band No.  band energies     occupation 
      1      -9.5513      2.00000
      2      -8.1288      2.00000
      3      -5.9639      2.00000
      4      -5.8932      2.00000
      5      -5.8210      2.00000
      6      -5.6767      2.00000
      7      -5.6656      2.00000
      8      -5.5868      2.00000
      9      -5.5551      2.00000
     10      -5.4773      2.00000
     11      -5.3885      2.00000
     12      -3.6667      2.00000
     13       0.1725      2.00000
     14       4.2244      2.00000
     15       6.1844      2.00000
     16       6.6057      2.00000
     17       7.7474      2.00000
     18       8.0610      2.00000
     19      11.9340      0.00000
     20      12.2834      0.00000
     21      17.6180      0.00000
     22      18.9389      0.00000
     23      19.7961      0.00000
     24      20.9006      0.00000
     25      21.8281      0.00000
     26      22.6016      0.00000
     27      23.1812      0.00000
     28      24.7382      0.00000
     29      26.7340      0.00000
     30      27.7228      0.00000
     31      29.1526      0.00000
     32      30.9219      0.00000

 k-point    10 :       0.1250    0.1250    0.0000
  band No.  band energies     occupation 
      1      -9.2362      2.00000
      2      -7.9769      2.00000
      3      -5.9485      2.00000
      4      -5.8422      2.00000
      5      -5.8359      2.00000
      6      -5.6927      2.00000
      7      -5.6640      2.00000
      8      -5.5818      2.00000
      9      -5.5742      2.00000
     10      -5.4815      2.00000
     11      -5.4497      2.00000
     12      -3.6672      2.00000
     13       0.5256      2.00000
     14       3.5645      2.00000
     15       5.3004      2.00000
     16       5.6385      2.00000
     17       7.3641      2.00000
     18       7.6381      2.00000
     19      12.9904      0.00000
     20      13.7673      0.00000
     21      17.7794      0.00000
     22      18.4429      0.00000
     23      19.2794      0.00000
     24      19.9642      0.00000
     25      21.7863      0.00000
     26      23.0506      0.00000
     27      25.2833      0.00000
     28      25.3846      0.00000
     29      27.4470      0.00000
     30      28.6092      0.00000
     31      28.8830      0.00000
     32      30.9169      0.00000

 k-point    11 :       0.2500    0.1250   -0.0000
  band No.  band energies     occupation 
      1      -8.6002      2.00000
      2      -7.7447      2.00000
      3      -5.8848      2.00000
      4      -5.8135      2.00000
      5      -5.7683      2.00000
      6      -5.7143      2.00000
      7      -5.6713      2.00000
      8      -5.6028      2.00000
      9      -5.6000      2.00000
     10      -5.5130      2.00000
     11      -5.4405      2.00000
     12      -3.6568      2.00000
     13       1.1860      2.00000
     14       2.4320      2.00000
     15       3.8228      2.00000
     16       5.1281      2.00000
     17       6.5449      2.00000
     18       7.2547      2.00000
     19      14.2935      0.00000
     20      15.3889      0.00000
     21      16.9281      0.00000
     22      18.0304      0.00000
     23      18.4433      0.00000
     24      20.2141      0.00000
     25      21.3886      0.00000
     26      23.1257      0.00000
     27      23.8018      0.00000
     28      26.1685      0.00000
     29      27.6569      0.00000
     30      29.2346      0.00000
     31      31.6286      0.00000
     32      32.6770      0.00000

 k-point    12 :       0.3750    0.1250   -0.0000
  band No.  band energies     occupation 
      1      -7.9544      2.00000
      2      -7.6052      2.00000
      3      -5.8978      2.00000
      4      -5.7795      2.00000
      5      -5.7650      2.00000
      6      -5.7099      2.00000
      7      -5.6663      2.00000
      8      -5.6142      2.00000
      9      -5.5379      2.00000
     10      -5.4339      2.00000
     11      -5.1876      2.00000
     12      -3.9095      2.00000
     13       0.9514      2.00000
     14       2.1886      2.00000
     15       2.8938      2.00000
     16       5.2932      2.00000
     17       5.5135      2.00000
     18       7.2991      2.00000
     19      15.0264      0.00000
     20      15.8048      0.00000
     21      16.4553      0.00000
     22      17.4811      0.00000
     23      17.7260      0.00000
     24      19.3216      0.00000
     25      21.6868      0.00000
     26      22.1606      0.00000
     27      23.4631      0.00000
     28      27.4868      0.00000
     29      29.3208      0.00000
     30      30.1340      0.00000
     31      30.7117      0.00000
     32      31.3141      0.00000

 k-point    13 :       0.5000    0.1250   -0.0000
  band No.  band energies     occupation 
      1      -7.8040      2.00000
      2      -7.6238      2.00000
      3      -5.9073      2.00000
      4      -5.8409      2.00000
      5      -5.8121      2.00000
      6      -5.7311      2.00000
      7      -5.6148      2.00000
      8      -5.6048      2.00000
      9      -5.4971      2.00000
     10      -5.4217      2.00000
     11      -4.6333      2.00000
     12      -4.2328      2.00000
     13       0.9308      2.00000
     14       1.5221      2.00000
     15       3.4479      2.00000
     16       4.6525      2.00000
     17       6.2118      2.00000
     18       7.4155      2.00000
     19      15.0475      0.00000
     20      15.6640      0.00000
     21      16.2091      0.00000
     22      16.7615      0.00000
     23      17.2205      0.00000
     24      17.5698      0.00000
     25      22.2102      0.00000
     26      23.0314      0.00000
     27      24.3897      0.00000
     28      26.7809      0.00000
     29      28.1341      0.00000
     30      29.7235      0.00000
     31      30.8041      0.00000
     32      32.0539      0.00000

 k-point    14 :      -0.3750    0.1250   -0.0000
  band No.  band energies     occupation 
      1      -8.3047      2.00000
      2      -7.7149      2.00000
      3      -5.9316      2.00000
      4      -5.8442      2.00000
      5      -5.8313      2.00000
      6      -5.7175      2.00000
      7      -5.6395      2.00000
      8      -5.5789      2.00000
      9      -5.5327      2.00000
     10      -5.4187      2.00000
     11      -5.1738      2.00000
     12      -3.4905      2.00000
     13       1.0839      2.00000
     14       2.2546      2.00000
     15       2.8573      2.00000
     16       5.8939      2.00000
     17       6.7364      2.00000
     18       7.3763      2.00000
     19      14.4021      0.00000
     20      14.5365      0.00000
     21      16.3782      0.00000
     22      16.9512      0.00000
     23      17.1183      0.00000
     24      17.5953      0.00000
     25      22.4279      0.00000
     26      23.3526      0.00000
     27      24.8666      0.00000
     28      25.7254      0.00000
     29      26.8364      0.00000
     30      29.2386      0.00000
     31      29.9403      0.00000
     32      32.4240      0.00000

 k-point    15 :      -0.2500    0.1250    0.0000
  band No.  band energies     occupation 
      1      -8.9770      2.00000
      2      -7.9278      2.00000
      3      -5.9267      2.00000
      4      -5.8459      2.00000
      5      -5.7600      2.00000
      6      -5.7056      2.00000
      7      -5.6800      2.00000
      8      -5.6073      2.00000
      9      -5.5546      2.00000
     10      -5.5006      2.00000
     11      -5.3653      2.00000
     12      -3.3949      2.00000
     13       0.9297      2.00000
     14       2.9172      2.00000
     15       4.7703      2.00000
     16       6.2276      2.00000
     17       6.8860      2.00000
     18       7.5386      2.00000
     19      13.3075      0.00000
     20      13.5526      0.00000
     21      17.4724      0.00000
     22      17.7590      0.00000
     23      18.1624      0.00000
     24      18.5569      0.00000
     25      21.1324      0.00000
     26      21.9000      0.00000
     27      24.0643      0.00000
     28      25.2803      0.00000
     29      27.4508      0.00000
     30      28.6929      0.00000
     31      29.1040      0.00000
     32      32.6369      0.00000

 k-point    16 :      -0.1250    0.1250    0.0000
  band No.  band energies     occupation 
      1      -9.4529      2.00000
      2      -8.1053      2.00000
      3      -5.9178      2.00000
      4      -5.8873      2.00000
      5      -5.7872      2.00000
      6      -5.6889      2.00000
      7      -5.6779      2.00000
      8      -5.6115      2.00000
      9      -5.5617      2.00000
     10      -5.5119      2.00000
     11      -5.3628      2.00000
     12      -3.5566      2.00000
     13       0.3186      2.00000
     14       4.4607      2.00000
     15       6.0022      2.00000
     16       6.6869      2.00000
     17       6.8687      2.00000
     18       7.8163      2.00000
     19      12.2929      0.00000
     20      12.6301      0.00000
     21      18.2129      0.00000
     22      18.5952      0.00000
     23      20.0951      0.00000
     24      20.1382      0.00000
     25      20.3792      0.00000
     26      20.8037      0.00000
     27      23.0995      0.00000
     28      24.3406      0.00000
     29      28.1290      0.00000
     30      28.4831      0.00000
     31      29.0469      0.00000
     32      30.0438      0.00000

 k-point    17 :       0.0000    0.2500    0.0000
  band No.  band energies     occupation 
      1      -8.9455      2.00000
      2      -7.8726      2.00000
      3      -5.9614      2.00000
      4      -5.8755      2.00000
      5      -5.7528      2.00000
      6      -5.6984      2.00000
      7      -5.6622      2.00000
      8      -5.6220      2.00000
      9      -5.5740      2.00000
     10      -5.5041      2.00000
     11      -5.3995      2.00000
     12      -3.6106      2.00000
     13       0.8731      2.00000
     14       2.4090      2.00000
     15       4.2493      2.00000
     16       6.6752      2.00000
     17       7.0009      2.00000
     18       8.0593      2.00000
     19      13.4026      0.00000
     20      13.9453      0.00000
     21      17.3130      0.00000
     22      17.7180      0.00000
     23      18.5756      0.00000
     24      19.4993      0.00000
     25      22.6664      0.00000
     26      22.7762      0.00000
     27      23.9305      0.00000
     28      25.6781      0.00000
     29      27.1569      0.00000
     30      27.9358      0.00000
     31      29.8898      0.00000
     32      30.3277      0.00000

 k-point    18 :       0.1250    0.2500   -0.0000
  band No.  band energies     occupation 
      1      -8.6002      2.00000
      2      -7.7447      2.00000
      3      -5.8848      2.00000
      4      -5.8135      2.00000
      5      -5.7683      2.00000
      6      -5.7143      2.00000
      7      -5.6713      2.00000
      8      -5.6028      2.00000
      9      -5.6000      2.00000
     10      -5.5130      2.00000
     11      -5.4405      2.00000
     12      -3.6568      2.00000
     13       1.1860      2.00000
     14       2.4320      2.00000
     15       3.8228      2.00000
     16       5.1281      2.00000
     17       6.5449      2.00000
     18       7.2547      2.00000
     19      14.2935      0.00000
     20      15.3889      0.00000
     21      16.9281      0.00000
     22      18.0304      0.00000
     23      18.4433      0.00000
     24      20.2141      0.00000
     25      21.3886      0.00000
     26      23.1257      0.00000
     27      23.8018      0.00000
     28      26.1685      0.00000
     29      27.6569      0.00000
     30      29.2346      0.00000
     31      31.6286      0.00000
     32      32.6770      0.00000

 k-point    19 :       0.2500    0.2500   -0.0000
  band No.  band energies     occupation 
      1      -8.1092      2.00000
      2      -7.6458      2.00000
      3      -5.8896      2.00000
      4      -5.7643      2.00000
      5      -5.7199      2.00000
      6      -5.6732      2.00000
      7      -5.6317      2.00000
      8      -5.6203      2.00000
      9      -5.5368      2.00000
     10      -5.4559      2.00000
     11      -5.3779      2.00000
     12      -3.5510      2.00000
     13       1.6373      2.00000
     14       3.1154      2.00000
     15       3.1784      2.00000
     16       3.3358      2.00000
     17       5.9219      2.00000
     18       6.0742      2.00000
     19      15.0142      0.00000
     20      15.4239      0.00000
     21      16.3972      0.00000
     22      17.9210      0.00000
     23      18.5885      0.00000
     24      20.1152      0.00000
     25      21.2537      0.00000
     26      22.0612      0.00000
     27      23.1594      0.00000
     28      26.9055      0.00000
     29      30.3126      0.00000
     30      30.4007      0.00000
     31      31.5317      0.00000
     32      32.8220      0.00000

 k-point    20 :       0.3750    0.2500   -0.0000
  band No.  band energies     occupation 
      1      -7.7904      2.00000
      2      -7.6767      2.00000
      3      -5.9508      2.00000
      4      -5.8515      2.00000
      5      -5.7093      2.00000
      6      -5.6580      2.00000
      7      -5.5911      2.00000
      8      -5.5495      2.00000
      9      -5.4769      2.00000
     10      -5.4368      2.00000
     11      -4.5970      2.00000
     12      -3.5931      2.00000
     13       1.4579      2.00000
     14       2.2633      2.00000
     15       3.0175      2.00000
     16       4.2838      2.00000
     17       4.9719      2.00000
     18       5.7992      2.00000
     19      14.1379      0.00000
     20      14.6649      0.00000
     21      15.3149      0.00000
     22      17.2682      0.00000
     23      18.6143      0.00000
     24      19.6953      0.00000
     25      21.5093      0.00000
     26      22.4588      0.00000
     27      24.1531      0.00000
     28      27.7095      0.00000
     29      28.6823      0.00000
     30      29.6520      0.00000
     31      32.5411      0.00000
     32      32.7653      0.00000

 k-point    21 :       0.5000    0.2500    0.0000
  band No.  band energies     occupation 
      1      -7.9042      2.00000
      2      -7.7160      2.00000
      3      -5.9648      2.00000
      4      -5.9092      2.00000
      5      -5.6940      2.00000
      6      -5.6725      2.00000
      7      -5.5926      2.00000
      8      -5.5164      2.00000
      9      -5.4381      2.00000
     10      -5.4034      2.00000
     11      -4.2310      2.00000
     12      -3.4460      2.00000
     13       1.2912      2.00000
     14       1.9265      2.00000
     15       3.5653      2.00000
     16       4.1457      2.00000
     17       5.6065      2.00000
     18       6.0547      2.00000
     19      12.6627      0.00000
     20      13.5621      0.00000
     21      14.9440      0.00000
     22      16.7931      0.00000
     23      18.2774      0.00000
     24      19.5728      0.00000
     25      22.4559      0.00000
     26      22.7055      0.00000
     27      24.2885      0.00000
     28      26.4029      0.00000
     29      28.1966      0.00000
     30      30.3978      0.00000
     31      32.6844      0.00000
     32      33.5983      0.00000

 k-point    22 :      -0.3750    0.2500    0.0000
  band No.  band energies     occupation 
      1      -8.2807      2.00000
      2      -7.7898      2.00000
      3      -5.9325      2.00000
      4      -5.8999      2.00000
      5      -5.7115      2.00000
      6      -5.6736      2.00000
      7      -5.6023      2.00000
      8      -5.5335      2.00000
      9      -5.4763      2.00000
     10      -5.3848      2.00000
     11      -4.9310      2.00000
     12      -2.9193      2.00000
     13       1.7055      2.00000
     14       2.5319      2.00000
     15       3.1148      2.00000
     16       5.1008      2.00000
     17       5.5894      2.00000
     18       6.8782      2.00000
     19      12.1786      0.00000
     20      12.6991      0.00000
     21      15.7425      0.00000
     22      16.8613      0.00000
     23      17.8301      0.00000
     24      19.5660      0.00000
     25      21.8721      0.00000
     26      22.1843      0.00000
     27      24.5293      0.00000
     28      26.0160      0.00000
     29      27.1089      0.00000
     30      30.7028      0.00000
     31      32.6288      0.00000
     32      33.5341      0.00000

 k-point    23 :      -0.2500    0.2500    0.0000
  band No.  band energies     occupation 
      1      -8.7068      2.00000
      2      -7.8854      2.00000
      3      -5.8912      2.00000
      4      -5.8409      2.00000
      5      -5.7649      2.00000
      6      -5.6553      2.00000
      7      -5.6340      2.00000
      8      -5.5805      2.00000
      9      -5.5770      2.00000
     10      -5.3658      2.00000
     11      -5.3636      2.00000
     12      -3.0858      2.00000
     13       1.4116      2.00000
     14       3.2092      2.00000
     15       4.5598      2.00000
     16       5.0451      2.00000
     17       5.8106      2.00000
     18       7.3392      2.00000
     19      12.7933      0.00000
     20      13.0182      0.00000
     21      16.8006      0.00000
     22      17.5990      0.00000
     23      17.6347      0.00000
     24      19.7008      0.00000
     25      20.4026      0.00000
     26      20.9876      0.00000
     27      25.1662      0.00000
     28      25.6170      0.00000
     29      25.9722      0.00000
     30      29.8935      0.00000
     31      32.6205      0.00000
     32      33.1653      0.00000

 k-point    24 :      -0.1250    0.2500   -0.0000
  band No.  band energies     occupation 
      1      -8.9770      2.00000
      2      -7.9278      2.00000
      3      -5.9267      2.00000
      4      -5.8459      2.00000
      5      -5.7600      2.00000
      6      -5.7056      2.00000
      7      -5.6800      2.00000
      8      -5.6073      2.00000
      9      -5.5546      2.00000
     10      -5.5006      2.00000
     11      -5.3653      2.00000
     12      -3.3949      2.00000
     13       0.9297      2.00000
     14       2.9172      2.00000
     15       4.7703      2.00000
     16       6.2276      2.00000
     17       6.8860      2.00000
     18       7.5386      2.00000
     19      13.3075      0.00000
     20      13.5526      0.00000
     21      17.4724      0.00000
     22      17.7590      0.00000
     23      18.1624      0.00000
     24      18.5569      0.00000
     25      21.1324      0.00000
     26      21.9000      0.00000
     27      24.0643      0.00000
     28      25.2803      0.00000
     29      27.4508      0.00000
     30      28.6929      0.00000
     31      29.1040      0.00000
     32      32.6369      0.00000

 k-point    25 :       0.0000    0.3750   -0.0000
  band No.  band energies     occupation 
      1      -8.1804      2.00000
      2      -7.6333      2.00000
      3      -5.9328      2.00000
      4      -5.8298      2.00000
      5      -5.7784      2.00000
      6      -5.7133      2.00000
      7      -5.6908      2.00000
      8      -5.6377      2.00000
      9      -5.5437      2.00000
     10      -5.4267      2.00000
     11      -5.2764      2.00000
     12      -3.8823      2.00000
     13       0.8119      2.00000
     14       2.2358      2.00000
     15       2.5118      2.00000
     16       5.6697      2.00000
     17       6.9928      2.00000
     18       8.1045      2.00000
     19      14.6449      0.00000
     20      15.4051      0.00000
     21      16.4724      0.00000
     22      17.0131      0.00000
     23      17.7930      0.00000
     24      18.3149      0.00000
     25      22.6477      0.00000
     26      23.5954      0.00000
     27      23.9731      0.00000
     28      26.2174      0.00000
     29      27.9661      0.00000
     30      28.5773      0.00000
     31      30.0572      0.00000
     32      30.7970      0.00000

 k-point    26 :       0.1250    0.3750   -0.0000
  band No.  band energies     occupation 
      1      -7.9544      2.00000
      2      -7.6052      2.00000
      3      -5.8978      2.00000
      4      -5.7795      2.00000
      5      -5.7650      2.00000
      6      -5.7099      2.00000
      7      -5.6663      2.00000
      8      -5.6142      2.00000
      9      -5.5379      2.00000
     10      -5.4339      2.00000
     11      -5.1876      2.00000
     12      -3.9095      2.00000
     13       0.9514      2.00000
     14       2.1886      2.00000
     15       2.8938      2.00000
     16       5.2932      2.00000
     17       5.5135      2.00000
     18       7.2991      2.00000
     19      15.0264      0.00000
     20      15.8048      0.00000
     21      16.4553      0.00000
     22      17.4811      0.00000
     23      17.7260      0.00000
     24      19.3216      0.00000
     25      21.6868      0.00000
     26      22.1606      0.00000
     27      23.4631      0.00000
     28      27.4868      0.00000
     29      29.3208      0.00000
     30      30.1340      0.00000
     31      30.7117      0.00000
     32      31.3141      0.00000

 k-point    27 :       0.2500    0.3750   -0.0000
  band No.  band energies     occupation 
      1      -7.7904      2.00000
      2      -7.6767      2.00000
      3      -5.9508      2.00000
      4      -5.8515      2.00000
      5      -5.7093      2.00000
      6      -5.6580      2.00000
      7      -5.5911      2.00000
      8      -5.5495      2.00000
      9      -5.4769      2.00000
     10      -5.4368      2.00000
     11      -4.5970      2.00000
     12      -3.5931      2.00000
     13       1.4579      2.00000
     14       2.2633      2.00000
     15       3.0175      2.00000
     16       4.2838      2.00000
     17       4.9719      2.00000
     18       5.7992      2.00000
     19      14.1379      0.00000
     20      14.6649      0.00000
     21      15.3149      0.00000
     22      17.2682      0.00000
     23      18.6143      0.00000
     24      19.6953      0.00000
     25      21.5093      0.00000
     26      22.4588      0.00000
     27      24.1531      0.00000
     28      27.7095      0.00000
     29      28.6823      0.00000
     30      29.6520      0.00000
     31      32.5411      0.00000
     32      32.7653      0.00000

 k-point    28 :       0.3750    0.3750    0.0000
  band No.  band energies     occupation 
      1      -7.8287      2.00000
      2      -7.7653      2.00000
      3      -5.9878      2.00000
      4      -5.9264      2.00000
      5      -5.6804      2.00000
      6      -5.6111      2.00000
      7      -5.5580      2.00000
      8      -5.4734      2.00000
      9      -5.4016      2.00000
     10      -5.3812      2.00000
     11      -3.5779      2.00000
     12      -3.2898      2.00000
     13       1.3348      2.00000
     14       2.1193      2.00000
     15       2.8714      2.00000
     16       4.6184      2.00000
     17       4.6953      2.00000
     18       5.2758      2.00000
     19      11.9327      0.00000
     20      12.9928      0.00000
     21      13.9088      0.00000
     22      16.6844      0.00000
     23      19.3798      0.00000
     24      20.6855      0.00000
     25      22.0939      0.00000
     26      23.1464      0.00000
     27      24.2943      0.00000
     28      27.0546      0.00000
     29      28.8168      0.00000
     30      30.0923      0.00000
     31      31.5020      0.00000
     32      34.1833      0.00000

 k-point    29 :       0.5000    0.3750    0.0000
  band No.  band energies     occupation 
      1      -8.0011      2.00000
      2      -7.8039      2.00000
      3      -5.9819      2.00000
      4      -5.9641      2.00000
      5      -5.6511      2.00000
      6      -5.6324      2.00000
      7      -5.5471      2.00000
      8      -5.4564      2.00000
      9      -5.3351      2.00000
     10      -5.3265      2.00000
     11      -3.6180      2.00000
     12      -2.6048      2.00000
     13       1.2866      2.00000
     14       1.7674      2.00000
     15       3.6311      2.00000
     16       4.1696      2.00000
     17       4.7511      2.00000
     18       6.3025      2.00000
     19      10.3062      0.00000
     20      11.3740      0.00000
     21      13.8238      0.00000
     22      16.2244      0.00000
     23      19.3747      0.00000
     24      21.4779      0.00000
     25      22.2532      0.00000
     26      22.7270      0.00000
     27      24.1088      0.00000
     28      27.7930      0.00000
     29      28.0790      0.00000
     30      31.2767      0.00000
     31      31.5053      0.00000
     32      33.6076      0.00000

 k-point    30 :      -0.3750    0.3750    0.0000
  band No.  band energies     occupation 
      1      -8.1612      2.00000
      2      -7.8220      2.00000
      3      -5.9540      2.00000
      4      -5.9487      2.00000
      5      -5.6763      2.00000
      6      -5.6342      2.00000
      7      -5.5577      2.00000
      8      -5.4709      2.00000
      9      -5.3886      2.00000
     10      -5.3245      2.00000
     11      -4.3742      2.00000
     12      -2.4405      2.00000
     13       2.1176      2.00000
     14       2.2469      2.00000
     15       2.8013      2.00000
     16       4.6017      2.00000
     17       5.0077      2.00000
     18       6.8252      2.00000
     19      10.4462      0.00000
     20      11.1833      0.00000
     21      14.6062      0.00000
     22      16.3338      0.00000
     23      18.7677      0.00000
     24      21.4639      0.00000
     25      21.7504      0.00000
     26      22.2825      0.00000
     27      24.0541      0.00000
     28      27.4282      0.00000
     29      27.4793      0.00000
     30      32.1434      0.00000
     31      32.3666      0.00000
     32      32.7965      0.00000

 k-point    31 :      -0.2500    0.3750   -0.0000
  band No.  band energies     occupation 
      1      -8.2807      2.00000
      2      -7.7898      2.00000
      3      -5.9325      2.00000
      4      -5.8999      2.00000
      5      -5.7115      2.00000
      6      -5.6736      2.00000
      7      -5.6023      2.00000
      8      -5.5335      2.00000
      9      -5.4763      2.00000
     10      -5.3848      2.00000
     11      -4.9310      2.00000
     12      -2.9193      2.00000
     13       1.7055      2.00000
     14       2.5319      2.00000
     15       3.1148      2.00000
     16       5.1008      2.00000
     17       5.5894      2.00000
     18       6.8782      2.00000
     19      12.1786      0.00000
     20      12.6991      0.00000
     21      15.7425      0.00000
     22      16.8613      0.00000
     23      17.8301      0.00000
     24      19.5660      0.00000
     25      21.8721      0.00000
     26      22.1843      0.00000
     27      24.5293      0.00000
     28      26.0160      0.00000
     29      27.1089      0.00000
     30      30.7028      0.00000
     31      32.6288      0.00000
     32      33.5341      0.00000

 k-point    32 :      -0.1250    0.3750    0.0000
  band No.  band energies     occupation 
      1      -8.3047      2.00000
      2      -7.7149      2.00000
      3      -5.9316      2.00000
      4      -5.8442      2.00000
      5      -5.8313      2.00000
      6      -5.7175      2.00000
      7      -5.6395      2.00000
      8      -5.5789      2.00000
      9      -5.5327      2.00000
     10      -5.4187      2.00000
     11      -5.1738      2.00000
     12      -3.4905      2.00000
     13       1.0839      2.00000
     14       2.2546      2.00000
     15       2.8573      2.00000
     16       5.8939      2.00000
     17       6.7364      2.00000
     18       7.3763      2.00000
     19      14.4021      0.00000
     20      14.5365      0.00000
     21      16.3782      0.00000
     22      16.9512      0.00000
     23      17.1183      0.00000
     24      17.5953      0.00000
     25      22.4279      0.00000
     26      23.3526      0.00000
     27      24.8666      0.00000
     28      25.7254      0.00000
     29      26.8364      0.00000
     30      29.2386      0.00000
     31      29.9403      0.00000
     32      32.4240      0.00000

 k-point    33 :       0.0000    0.5000   -0.0000
  band No.  band energies     occupation 
      1      -7.7653      2.00000
      2      -7.5815      2.00000
      3      -5.9151      2.00000
      4      -5.7918      2.00000
      5      -5.7534      2.00000
      6      -5.7338      2.00000
      7      -5.6821      2.00000
      8      -5.6761      2.00000
      9      -5.5173      2.00000
     10      -5.4234      2.00000
     11      -4.7668      2.00000
     12      -4.5683      2.00000
     13       0.8086      2.00000
     14       1.2923      2.00000
     15       3.4053      2.00000
     16       4.5182      2.00000
     17       7.1299      2.00000
     18       8.1133      2.00000
     19      15.2825      0.00000
     20      15.7269      0.00000
     21      16.2709      0.00000
     22      17.2373      0.00000
     23      17.4469      0.00000
     24      17.6500      0.00000
     25      22.2615      0.00000
     26      22.9280      0.00000
     27      25.2935      0.00000
     28      25.4946      0.00000
     29      28.6178      0.00000
     30      28.8837      0.00000
     31      30.4079      0.00000
     32      31.1987      0.00000

 k-point    34 :       0.1250    0.5000   -0.0000
  band No.  band energies     occupation 
      1      -7.8040      2.00000
      2      -7.6238      2.00000
      3      -5.9073      2.00000
      4      -5.8409      2.00000
      5      -5.8121      2.00000
      6      -5.7311      2.00000
      7      -5.6148      2.00000
      8      -5.6048      2.00000
      9      -5.4971      2.00000
     10      -5.4217      2.00000
     11      -4.6333      2.00000
     12      -4.2328      2.00000
     13       0.9308      2.00000
     14       1.5221      2.00000
     15       3.4479      2.00000
     16       4.6525      2.00000
     17       6.2118      2.00000
     18       7.4155      2.00000
     19      15.0475      0.00000
     20      15.6640      0.00000
     21      16.2091      0.00000
     22      16.7615      0.00000
     23      17.2205      0.00000
     24      17.5698      0.00000
     25      22.2102      0.00000
     26      23.0314      0.00000
     27      24.3897      0.00000
     28      26.7809      0.00000
     29      28.1341      0.00000
     30      29.7235      0.00000
     31      30.8041      0.00000
     32      32.0539      0.00000

 k-point    35 :       0.2500    0.5000    0.0000
  band No.  band energies     occupation 
      1      -7.9042      2.00000
      2      -7.7160      2.00000
      3      -5.9648      2.00000
      4      -5.9092      2.00000
      5      -5.6940      2.00000
      6      -5.6725      2.00000
      7      -5.5926      2.00000
      8      -5.5164      2.00000
      9      -5.4381      2.00000
     10      -5.4034      2.00000
     11      -4.2310      2.00000
     12      -3.4460      2.00000
     13       1.2912      2.00000
     14       1.9265      2.00000
     15       3.5653      2.00000
     16       4.1457      2.00000
     17       5.6065      2.00000
     18       6.0547      2.00000
     19      12.6627      0.00000
     20      13.5621      0.00000
     21      14.9440      0.00000
     22      16.7931      0.00000
     23      18.2774      0.00000
     24      19.5728      0.00000
     25      22.4559      0.00000
     26      22.7055      0.00000
     27      24.2885      0.00000
     28      26.4029      0.00000
     29      28.1966      0.00000
     30      30.3978      0.00000
     31      32.6844      0.00000
     32      33.5983      0.00000

 k-point    36 :       0.3750    0.5000    0.0000
  band No.  band energies     occupation 
      1      -8.0011      2.00000
      2      -7.8039      2.00000
      3      -5.9819      2.00000
      4      -5.9641      2.00000
      5      -5.6511      2.00000
      6      -5.6324      2.00000
      7      -5.5471      2.00000
      8      -5.4564      2.00000
      9      -5.3351      2.00000
     10      -5.3265      2.00000
     11      -3.6180      2.00000
     12      -2.6048      2.00000
     13       1.2866      2.00000
     14       1.7674      2.00000
     15       3.6311      2.00000
     16       4.1696      2.00000
     17       4.7511      2.00000
     18       6.3025      2.00000
     19      10.3062      0.00000
     20      11.3740      0.00000
     21      13.8238      0.00000
     22      16.2244      0.00000
     23      19.3747      0.00000
     24      21.4779      0.00000
     25      22.2532      0.00000
     26      22.7270      0.00000
     27      24.1088      0.00000
     28      27.7930      0.00000
     29      28.0790      0.00000
     30      31.2767      0.00000
     31      31.5053      0.00000
     32      33.6076      0.00000

 k-point    37 :       0.5000    0.5000    0.0000
  band No.  band energies     occupation 
      1      -8.0389      2.00000
      2      -7.8400      2.00000
      3      -5.9937      2.00000
      4      -5.9781      2.00000
      5      -5.6338      2.00000
      6      -5.6311      2.00000
      7      -5.5337      2.00000
      8      -5.4435      2.00000
      9      -5.2847      2.00000
     10      -5.2686      2.00000
     11      -3.1999      2.00000
     12      -2.2664      2.00000
     13       0.8278      2.00000
     14       1.6902      2.00000
     15       3.8666      2.00000
     16       4.2714      2.00000
     17       4.6891      2.00000
     18       6.5430      2.00000
     19       9.3014      0.00000
     20      10.3658      0.00000
     21      13.3970      0.00000
     22      15.8901      0.00000
     23      19.7685      0.00000
     24      21.9532      0.00000
     25      22.1765      0.00000
     26      22.6576      0.00000
     27      24.5807      0.00000
     28      28.0234      0.00000
     29      28.5254      0.00000
     30      30.9780      0.00000
     31      31.7264      0.00000
     32      32.7835      0.00000

 k-point    38 :      -0.3750    0.5000   -0.0000
  band No.  band energies     occupation 
      1      -8.0011      2.00000
      2      -7.8039      2.00000
      3      -5.9819      2.00000
      4      -5.9641      2.00000
      5      -5.6511      2.00000
      6      -5.6324      2.00000
      7      -5.5471      2.00000
      8      -5.4564      2.00000
      9      -5.3351      2.00000
     10      -5.3265      2.00000
     11      -3.6180      2.00000
     12      -2.6048      2.00000
     13       1.2866      2.00000
     14       1.7674      2.00000
     15       3.6311      2.00000
     16       4.1696      2.00000
     17       4.7511      2.00000
     18       6.3025      2.00000
     19      10.3062      0.00000
     20      11.3740      0.00000
     21      13.8238      0.00000
     22      16.2244      0.00000
     23      19.3747      0.00000
     24      21.4779      0.00000
     25      22.2532      0.00000
     26      22.7270      0.00000
     27      24.1088      0.00000
     28      27.7930      0.00000
     29      28.0790      0.00000
     30      31.2767      0.00000
     31      31.5053      0.00000
     32      33.6076      0.00000

 k-point    39 :      -0.2500    0.5000    0.0000
  band No.  band energies     occupation 
      1      -7.9042      2.00000
      2      -7.7160      2.00000
      3      -5.9648      2.00000
      4      -5.9092      2.00000
      5      -5.6940      2.00000
      6      -5.6725      2.00000
      7      -5.5926      2.00000
      8      -5.5164      2.00000
      9      -5.4381      2.00000
     10      -5.4034      2.00000
     11      -4.2310      2.00000
     12      -3.4460      2.00000
     13       1.2912      2.00000
     14       1.9265      2.00000
     15       3.5653      2.00000
     16       4.1457      2.00000
     17       5.6065      2.00000
     18       6.0547      2.00000
     19      12.6627      0.00000
     20      13.5621      0.00000
     21      14.9440      0.00000
     22      16.7931      0.00000
     23      18.2774      0.00000
     24      19.5728      0.00000
     25      22.4559      0.00000
     26      22.7055      0.00000
     27      24.2885      0.00000
     28      26.4029      0.00000
     29      28.1966      0.00000
     30      30.3978      0.00000
     31      32.6844      0.00000
     32      33.5983      0.00000

 k-point    40 :      -0.1250    0.5000   -0.0000
  band No.  band energies     occupation 
      1      -7.8040      2.00000
      2      -7.6238      2.00000
      3      -5.9073      2.00000
      4      -5.8409      2.00000
      5      -5.8121      2.00000
      6      -5.7311      2.00000
      7      -5.6148      2.00000
      8      -5.6048      2.00000
      9      -5.4971      2.00000
     10      -5.4217      2.00000
     11      -4.6333      2.00000
     12      -4.2328      2.00000
     13       0.9308      2.00000
     14       1.5221      2.00000
     15       3.4479      2.00000
     16       4.6525      2.00000
     17       6.2118      2.00000
     18       7.4155      2.00000
     19      15.0475      0.00000
     20      15.6640      0.00000
     21      16.2091      0.00000
     22      16.7615      0.00000
     23      17.2205      0.00000
     24      17.5698      0.00000
     25      22.2102      0.00000
     26      23.0314      0.00000
     27      24.3897      0.00000
     28      26.7809      0.00000
     29      28.1341      0.00000
     30      29.7235      0.00000
     31      30.8041      0.00000
     32      32.0539      0.00000

 k-point    41 :      -0.0000   -0.3750    0.0000
  band No.  band energies     occupation 
      1      -8.1804      2.00000
      2      -7.6333      2.00000
      3      -5.9328      2.00000
      4      -5.8298      2.00000
      5      -5.7784      2.00000
      6      -5.7133      2.00000
      7      -5.6908      2.00000
      8      -5.6377      2.00000
      9      -5.5437      2.00000
     10      -5.4267      2.00000
     11      -5.2764      2.00000
     12      -3.8823      2.00000
     13       0.8119      2.00000
     14       2.2358      2.00000
     15       2.5118      2.00000
     16       5.6697      2.00000
     17       6.9928      2.00000
     18       8.1045      2.00000
     19      14.6449      0.00000
     20      15.4051      0.00000
     21      16.4724      0.00000
     22      17.0131      0.00000
     23      17.7930      0.00000
     24      18.3149      0.00000
     25      22.6477      0.00000
     26      23.5954      0.00000
     27      23.9731      0.00000
     28      26.2174      0.00000
     29      27.9661      0.00000
     30      28.5773      0.00000
     31      30.0572      0.00000
     32      30.7970      0.00000

 k-point    42 :       0.1250   -0.3750   -0.0000
  band No.  band energies     occupation 
      1      -8.3047      2.00000
      2      -7.7149      2.00000
      3      -5.9316      2.00000
      4      -5.8442      2.00000
      5      -5.8313      2.00000
      6      -5.7175      2.00000
      7      -5.6395      2.00000
      8      -5.5789      2.00000
      9      -5.5327      2.00000
     10      -5.4187      2.00000
     11      -5.1738      2.00000
     12      -3.4905      2.00000
     13       1.0839      2.00000
     14       2.2546      2.00000
     15       2.8573      2.00000
     16       5.8939      2.00000
     17       6.7364      2.00000
     18       7.3763      2.00000
     19      14.4021      0.00000
     20      14.5365      0.00000
     21      16.3782      0.00000
     22      16.9512      0.00000
     23      17.1183      0.00000
     24      17.5953      0.00000
     25      22.4279      0.00000
     26      23.3526      0.00000
     27      24.8666      0.00000
     28      25.7254      0.00000
     29      26.8364      0.00000
     30      29.2386      0.00000
     31      29.9403      0.00000
     32      32.4240      0.00000

 k-point    43 :       0.2500   -0.3750    0.0000
  band No.  band energies     occupation 
      1      -8.2807      2.00000
      2      -7.7898      2.00000
      3      -5.9325      2.00000
      4      -5.8999      2.00000
      5      -5.7115      2.00000
      6      -5.6736      2.00000
      7      -5.6023      2.00000
      8      -5.5335      2.00000
      9      -5.4763      2.00000
     10      -5.3848      2.00000
     11      -4.9310      2.00000
     12      -2.9193      2.00000
     13       1.7055      2.00000
     14       2.5319      2.00000
     15       3.1148      2.00000
     16       5.1008      2.00000
     17       5.5894      2.00000
     18       6.8782      2.00000
     19      12.1786      0.00000
     20      12.6991      0.00000
     21      15.7425      0.00000
     22      16.8613      0.00000
     23      17.8301      0.00000
     24      19.5660      0.00000
     25      21.8721      0.00000
     26      22.1843      0.00000
     27      24.5293      0.00000
     28      26.0160      0.00000
     29      27.1089      0.00000
     30      30.7028      0.00000
     31      32.6288      0.00000
     32      33.5341      0.00000

 k-point    44 :       0.3750   -0.3750    0.0000
  band No.  band energies     occupation 
      1      -8.1612      2.00000
      2      -7.8220      2.00000
      3      -5.9540      2.00000
      4      -5.9487      2.00000
      5      -5.6763      2.00000
      6      -5.6342      2.00000
      7      -5.5577      2.00000
      8      -5.4709      2.00000
      9      -5.3886      2.00000
     10      -5.3245      2.00000
     11      -4.3742      2.00000
     12      -2.4405      2.00000
     13       2.1176      2.00000
     14       2.2469      2.00000
     15       2.8013      2.00000
     16       4.6017      2.00000
     17       5.0077      2.00000
     18       6.8252      2.00000
     19      10.4462      0.00000
     20      11.1833      0.00000
     21      14.6062      0.00000
     22      16.3338      0.00000
     23      18.7677      0.00000
     24      21.4639      0.00000
     25      21.7504      0.00000
     26      22.2825      0.00000
     27      24.0541      0.00000
     28      27.4282      0.00000
     29      27.4793      0.00000
     30      32.1434      0.00000
     31      32.3666      0.00000
     32      32.7965      0.00000

 k-point    45 :       0.5000   -0.3750   -0.0000
  band No.  band energies     occupation 
      1      -8.0011      2.00000
      2      -7.8039      2.00000
      3      -5.9819      2.00000
      4      -5.9641      2.00000
      5      -5.6511      2.00000
      6      -5.6324      2.00000
      7      -5.5471      2.00000
      8      -5.4564      2.00000
      9      -5.3351      2.00000
     10      -5.3265      2.00000
     11      -3.6180      2.00000
     12      -2.6048      2.00000
     13       1.2866      2.00000
     14       1.7674      2.00000
     15       3.6311      2.00000
     16       4.1696      2.00000
     17       4.7511      2.00000
     18       6.3025      2.00000
     19      10.3062      0.00000
     20      11.3740      0.00000
     21      13.8238      0.00000
     22      16.2244      0.00000
     23      19.3747      0.00000
     24      21.4779      0.00000
     25      22.2532      0.00000
     26      22.7270      0.00000
     27      24.1088      0.00000
     28      27.7930      0.00000
     29      28.0790      0.00000
     30      31.2767      0.00000
     31      31.5053      0.00000
     32      33.6076      0.00000

 k-point    46 :      -0.3750   -0.3750   -0.0000
  band No.  band energies     occupation 
      1      -7.8287      2.00000
      2      -7.7653      2.00000
      3      -5.9878      2.00000
      4      -5.9264      2.00000
      5      -5.6804      2.00000
      6      -5.6111      2.00000
      7      -5.5580      2.00000
      8      -5.4734      2.00000
      9      -5.4016      2.00000
     10      -5.3812      2.00000
     11      -3.5779      2.00000
     12      -3.2898      2.00000
     13       1.3348      2.00000
     14       2.1193      2.00000
     15       2.8714      2.00000
     16       4.6184      2.00000
     17       4.6953      2.00000
     18       5.2758      2.00000
     19      11.9327      0.00000
     20      12.9928      0.00000
     21      13.9088      0.00000
     22      16.6844      0.00000
     23      19.3798      0.00000
     24      20.6855      0.00000
     25      22.0939      0.00000
     26      23.1464      0.00000
     27      24.2943      0.00000
     28      27.0546      0.00000
     29      28.8168      0.00000
     30      30.0923      0.00000
     31      31.5020      0.00000
     32      34.1833      0.00000

 k-point    47 :      -0.2500   -0.3750    0.0000
  band No.  band energies     occupation 
      1      -7.7904      2.00000
      2      -7.6767      2.00000
      3      -5.9508      2.00000
      4      -5.8515      2.00000
      5      -5.7093      2.00000
      6      -5.6580      2.00000
      7      -5.5911      2.00000
      8      -5.5495      2.00000
      9      -5.4769      2.00000
     10      -5.4368      2.00000
     11      -4.5970      2.00000
     12      -3.5931      2.00000
     13       1.4579      2.00000
     14       2.2633      2.00000
     15       3.0175      2.00000
     16       4.2838      2.00000
     17       4.9719      2.00000
     18       5.7992      2.00000
     19      14.1379      0.00000
     20      14.6649      0.00000
     21      15.3149      0.00000
     22      17.2682      0.00000
     23      18.6143      0.00000
     24      19.6953      0.00000
     25      21.5093      0.00000
     26      22.4588      0.00000
     27      24.1531      0.00000
     28      27.7095      0.00000
     29      28.6823      0.00000
     30      29.6520      0.00000
     31      32.5411      0.00000
     32      32.7653      0.00000

 k-point    48 :      -0.1250   -0.3750    0.0000
  band No.  band energies     occupation 
      1      -7.9544      2.00000
      2      -7.6052      2.00000
      3      -5.8978      2.00000
      4      -5.7795      2.00000
      5      -5.7650      2.00000
      6      -5.7099      2.00000
      7      -5.6663      2.00000
      8      -5.6142      2.00000
      9      -5.5379      2.00000
     10      -5.4339      2.00000
     11      -5.1876      2.00000
     12      -3.9095      2.00000
     13       0.9514      2.00000
     14       2.1886      2.00000
     15       2.8938      2.00000
     16       5.2932      2.00000
     17       5.5135      2.00000
     18       7.2991      2.00000
     19      15.0264      0.00000
     20      15.8048      0.00000
     21      16.4553      0.00000
     22      17.4811      0.00000
     23      17.7260      0.00000
     24      19.3216      0.00000
     25      21.6868      0.00000
     26      22.1606      0.00000
     27      23.4631      0.00000
     28      27.4868      0.00000
     29      29.3208      0.00000
     30      30.1340      0.00000
     31      30.7117      0.00000
     32      31.3141      0.00000

 k-point    49 :      -0.0000   -0.2500   -0.0000
  band No.  band energies     occupation 
      1      -8.9455      2.00000
      2      -7.8726      2.00000
      3      -5.9614      2.00000
      4      -5.8755      2.00000
      5      -5.7528      2.00000
      6      -5.6984      2.00000
      7      -5.6622      2.00000
      8      -5.6220      2.00000
      9      -5.5740      2.00000
     10      -5.5041      2.00000
     11      -5.3995      2.00000
     12      -3.6106      2.00000
     13       0.8731      2.00000
     14       2.4090      2.00000
     15       4.2493      2.00000
     16       6.6752      2.00000
     17       7.0009      2.00000
     18       8.0593      2.00000
     19      13.4026      0.00000
     20      13.9453      0.00000
     21      17.3130      0.00000
     22      17.7180      0.00000
     23      18.5756      0.00000
     24      19.4993      0.00000
     25      22.6664      0.00000
     26      22.7762      0.00000
     27      23.9305      0.00000
     28      25.6781      0.00000
     29      27.1569      0.00000
     30      27.9358      0.00000
     31      29.8898      0.00000
     32      30.3277      0.00000

 k-point    50 :       0.1250   -0.2500    0.0000
  band No.  band energies     occupation 
      1      -8.9770      2.00000
      2      -7.9278      2.00000
      3      -5.9267      2.00000
      4      -5.8459      2.00000
      5      -5.7600      2.00000
      6      -5.7056      2.00000
      7      -5.6800      2.00000
      8      -5.6073      2.00000
      9      -5.5546      2.00000
     10      -5.5006      2.00000
     11      -5.3653      2.00000
     12      -3.3949      2.00000
     13       0.9297      2.00000
     14       2.9172      2.00000
     15       4.7703      2.00000
     16       6.2276      2.00000
     17       6.8860      2.00000
     18       7.5386      2.00000
     19      13.3075      0.00000
     20      13.5526      0.00000
     21      17.4724      0.00000
     22      17.7590      0.00000
     23      18.1624      0.00000
     24      18.5569      0.00000
     25      21.1324      0.00000
     26      21.9000      0.00000
     27      24.0643      0.00000
     28      25.2803      0.00000
     29      27.4508      0.00000
     30      28.6929      0.00000
     31      29.1040      0.00000
     32      32.6369      0.00000

 k-point    51 :       0.2500   -0.2500    0.0000
  band No.  band energies     occupation 
      1      -8.7068      2.00000
      2      -7.8854      2.00000
      3      -5.8912      2.00000
      4      -5.8409      2.00000
      5      -5.7649      2.00000
      6      -5.6553      2.00000
      7      -5.6340      2.00000
      8      -5.5805      2.00000
      9      -5.5770      2.00000
     10      -5.3658      2.00000
     11      -5.3636      2.00000
     12      -3.0858      2.00000
     13       1.4116      2.00000
     14       3.2092      2.00000
     15       4.5598      2.00000
     16       5.0451      2.00000
     17       5.8106      2.00000
     18       7.3392      2.00000
     19      12.7933      0.00000
     20      13.0182      0.00000
     21      16.8006      0.00000
     22      17.5990      0.00000
     23      17.6347      0.00000
     24      19.7008      0.00000
     25      20.4026      0.00000
     26      20.9876      0.00000
     27      25.1662      0.00000
     28      25.6170      0.00000
     29      25.9722      0.00000
     30      29.8935      0.00000
     31      32.6205      0.00000
     32      33.1653      0.00000

 k-point    52 :       0.3750   -0.2500   -0.0000
  band No.  band energies     occupation 
      1      -8.2807      2.00000
      2      -7.7898      2.00000
      3      -5.9325      2.00000
      4      -5.8999      2.00000
      5      -5.7115      2.00000
      6      -5.6736      2.00000
      7      -5.6023      2.00000
      8      -5.5335      2.00000
      9      -5.4763      2.00000
     10      -5.3848      2.00000
     11      -4.9310      2.00000
     12      -2.9193      2.00000
     13       1.7055      2.00000
     14       2.5319      2.00000
     15       3.1148      2.00000
     16       5.1008      2.00000
     17       5.5894      2.00000
     18       6.8782      2.00000
     19      12.1786      0.00000
     20      12.6991      0.00000
     21      15.7425      0.00000
     22      16.8613      0.00000
     23      17.8301      0.00000
     24      19.5660      0.00000
     25      21.8721      0.00000
     26      22.1843      0.00000
     27      24.5293      0.00000
     28      26.0160      0.00000
     29      27.1089      0.00000
     30      30.7028      0.00000
     31      32.6288      0.00000
     32      33.5341      0.00000

 k-point    53 :       0.5000   -0.2500    0.0000
  band No.  band energies     occupation 
      1      -7.9042      2.00000
      2      -7.7160      2.00000
      3      -5.9648      2.00000
      4      -5.9092      2.00000
      5      -5.6940      2.00000
      6      -5.6725      2.00000
      7      -5.5926      2.00000
      8      -5.5164      2.00000
      9      -5.4381      2.00000
     10      -5.4034      2.00000
     11      -4.2310      2.00000
     12      -3.4460      2.00000
     13       1.2912      2.00000
     14       1.9265      2.00000
     15       3.5653      2.00000
     16       4.1457      2.00000
     17       5.6065      2.00000
     18       6.0547      2.00000
     19      12.6627      0.00000
     20      13.5621      0.00000
     21      14.9440      0.00000
     22      16.7931      0.00000
     23      18.2774      0.00000
     24      19.5728      0.00000
     25      22.4559      0.00000
     26      22.7055      0.00000
     27      24.2885      0.00000
     28      26.4029      0.00000
     29      28.1966      0.00000
     30      30.3978      0.00000
     31      32.6844      0.00000
     32      33.5983      0.00000

 k-point    54 :      -0.3750   -0.2500    0.0000
  band No.  band energies     occupation 
      1      -7.7904      2.00000
      2      -7.6767      2.00000
      3      -5.9508      2.00000
      4      -5.8515      2.00000
      5      -5.7093      2.00000
      6      -5.6580      2.00000
      7      -5.5911      2.00000
      8      -5.5495      2.00000
      9      -5.4769      2.00000
     10      -5.4368      2.00000
     11      -4.5970      2.00000
     12      -3.5931      2.00000
     13       1.4579      2.00000
     14       2.2633      2.00000
     15       3.0175      2.00000
     16       4.2838      2.00000
     17       4.9719      2.00000
     18       5.7992      2.00000
     19      14.1379      0.00000
     20      14.6649      0.00000
     21      15.3149      0.00000
     22      17.2682      0.00000
     23      18.6143      0.00000
     24      19.6953      0.00000
     25      21.5093      0.00000
     26      22.4588      0.00000
     27      24.1531      0.00000
     28      27.7095      0.00000
     29      28.6823      0.00000
     30      29.6520      0.00000
     31      32.5411      0.00000
     32      32.7653      0.00000

 k-point    55 :      -0.2500   -0.2500    0.0000
  band No.  band energies     occupation 
      1      -8.1092      2.00000
      2      -7.6458      2.00000
      3      -5.8896      2.00000
      4      -5.7643      2.00000
      5      -5.7199      2.00000
      6      -5.6732      2.00000
      7      -5.6317      2.00000
      8      -5.6203      2.00000
      9      -5.5368      2.00000
     10      -5.4559      2.00000
     11      -5.3779      2.00000
     12      -3.5510      2.00000
     13       1.6373      2.00000
     14       3.1154      2.00000
     15       3.1784      2.00000
     16       3.3358      2.00000
     17       5.9219      2.00000
     18       6.0742      2.00000
     19      15.0142      0.00000
     20      15.4239      0.00000
     21      16.3972      0.00000
     22      17.9210      0.00000
     23      18.5885      0.00000
     24      20.1152      0.00000
     25      21.2537      0.00000
     26      22.0612      0.00000
     27      23.1594      0.00000
     28      26.9055      0.00000
     29      30.3126      0.00000
     30      30.4007      0.00000
     31      31.5317      0.00000
     32      32.8220      0.00000

 k-point    56 :      -0.1250   -0.2500    0.0000
  band No.  band energies     occupation 
      1      -8.6002      2.00000
      2      -7.7447      2.00000
      3      -5.8848      2.00000
      4      -5.8135      2.00000
      5      -5.7683      2.00000
      6      -5.7143      2.00000
      7      -5.6713      2.00000
      8      -5.6028      2.00000
      9      -5.6000      2.00000
     10      -5.5130      2.00000
     11      -5.4405      2.00000
     12      -3.6568      2.00000
     13       1.1860      2.00000
     14       2.4320      2.00000
     15       3.8228      2.00000
     16       5.1281      2.00000
     17       6.5449      2.00000
     18       7.2547      2.00000
     19      14.2935      0.00000
     20      15.3889      0.00000
     21      16.9281      0.00000
     22      18.0304      0.00000
     23      18.4433      0.00000
     24      20.2141      0.00000
     25      21.3886      0.00000
     26      23.1257      0.00000
     27      23.8018      0.00000
     28      26.1685      0.00000
     29      27.6569      0.00000
     30      29.2346      0.00000
     31      31.6286      0.00000
     32      32.6770      0.00000

 k-point    57 :      -0.0000   -0.1250    0.0000
  band No.  band energies     occupation 
      1      -9.5513      2.00000
      2      -8.1288      2.00000
      3      -5.9639      2.00000
      4      -5.8932      2.00000
      5      -5.8210      2.00000
      6      -5.6767      2.00000
      7      -5.6656      2.00000
      8      -5.5868      2.00000
      9      -5.5551      2.00000
     10      -5.4773      2.00000
     11      -5.3885      2.00000
     12      -3.6667      2.00000
     13       0.1725      2.00000
     14       4.2244      2.00000
     15       6.1844      2.00000
     16       6.6057      2.00000
     17       7.7474      2.00000
     18       8.0610      2.00000
     19      11.9340      0.00000
     20      12.2834      0.00000
     21      17.6180      0.00000
     22      18.9389      0.00000
     23      19.7961      0.00000
     24      20.9006      0.00000
     25      21.8281      0.00000
     26      22.6016      0.00000
     27      23.1812      0.00000
     28      24.7382      0.00000
     29      26.7340      0.00000
     30      27.7228      0.00000
     31      29.1526      0.00000
     32      30.9219      0.00000

 k-point    58 :       0.1250   -0.1250    0.0000
  band No.  band energies     occupation 
      1      -9.4529      2.00000
      2      -8.1053      2.00000
      3      -5.9178      2.00000
      4      -5.8873      2.00000
      5      -5.7872      2.00000
      6      -5.6889      2.00000
      7      -5.6779      2.00000
      8      -5.6115      2.00000
      9      -5.5617      2.00000
     10      -5.5119      2.00000
     11      -5.3628      2.00000
     12      -3.5566      2.00000
     13       0.3186      2.00000
     14       4.4607      2.00000
     15       6.0022      2.00000
     16       6.6869      2.00000
     17       6.8687      2.00000
     18       7.8163      2.00000
     19      12.2929      0.00000
     20      12.6301      0.00000
     21      18.2129      0.00000
     22      18.5952      0.00000
     23      20.0951      0.00000
     24      20.1382      0.00000
     25      20.3792      0.00000
     26      20.8037      0.00000
     27      23.0995      0.00000
     28      24.3406      0.00000
     29      28.1290      0.00000
     30      28.4831      0.00000
     31      29.0469      0.00000
     32      30.0438      0.00000

 k-point    59 :       0.2500   -0.1250   -0.0000
  band No.  band energies     occupation 
      1      -8.9770      2.00000
      2      -7.9278      2.00000
      3      -5.9267      2.00000
      4      -5.8459      2.00000
      5      -5.7600      2.00000
      6      -5.7056      2.00000
      7      -5.6800      2.00000
      8      -5.6073      2.00000
      9      -5.5546      2.00000
     10      -5.5006      2.00000
     11      -5.3653      2.00000
     12      -3.3949      2.00000
     13       0.9297      2.00000
     14       2.9172      2.00000
     15       4.7703      2.00000
     16       6.2276      2.00000
     17       6.8860      2.00000
     18       7.5386      2.00000
     19      13.3075      0.00000
     20      13.5526      0.00000
     21      17.4724      0.00000
     22      17.7590      0.00000
     23      18.1624      0.00000
     24      18.5569      0.00000
     25      21.1324      0.00000
     26      21.9000      0.00000
     27      24.0643      0.00000
     28      25.2803      0.00000
     29      27.4508      0.00000
     30      28.6929      0.00000
     31      29.1040      0.00000
     32      32.6369      0.00000

 k-point    60 :       0.3750   -0.1250    0.0000
  band No.  band energies     occupation 
      1      -8.3047      2.00000
      2      -7.7149      2.00000
      3      -5.9316      2.00000
      4      -5.8442      2.00000
      5      -5.8313      2.00000
      6      -5.7175      2.00000
      7      -5.6395      2.00000
      8      -5.5789      2.00000
      9      -5.5327      2.00000
     10      -5.4187      2.00000
     11      -5.1738      2.00000
     12      -3.4905      2.00000
     13       1.0839      2.00000
     14       2.2546      2.00000
     15       2.8573      2.00000
     16       5.8939      2.00000
     17       6.7364      2.00000
     18       7.3763      2.00000
     19      14.4021      0.00000
     20      14.5365      0.00000
     21      16.3782      0.00000
     22      16.9512      0.00000
     23      17.1183      0.00000
     24      17.5953      0.00000
     25      22.4279      0.00000
     26      23.3526      0.00000
     27      24.8666      0.00000
     28      25.7254      0.00000
     29      26.8364      0.00000
     30      29.2386      0.00000
     31      29.9403      0.00000
     32      32.4240      0.00000

 k-point    61 :       0.5000   -0.1250   -0.0000
  band No.  band energies     occupation 
      1      -7.8040      2.00000
      2      -7.6238      2.00000
      3      -5.9073      2.00000
      4      -5.8409      2.00000
      5      -5.8121      2.00000
      6      -5.7311      2.00000
      7      -5.6148      2.00000
      8      -5.6048      2.00000
      9      -5.4971      2.00000
     10      -5.4217      2.00000
     11      -4.6333      2.00000
     12      -4.2328      2.00000
     13       0.9308      2.00000
     14       1.5221      2.00000
     15       3.4479      2.00000
     16       4.6525      2.00000
     17       6.2118      2.00000
     18       7.4155      2.00000
     19      15.0475      0.00000
     20      15.6640      0.00000
     21      16.2091      0.00000
     22      16.7615      0.00000
     23      17.2205      0.00000
     24      17.5698      0.00000
     25      22.2102      0.00000
     26      23.0314      0.00000
     27      24.3897      0.00000
     28      26.7809      0.00000
     29      28.1341      0.00000
     30      29.7235      0.00000
     31      30.8041      0.00000
     32      32.0539      0.00000

 k-point    62 :      -0.3750   -0.1250    0.0000
  band No.  band energies     occupation 
      1      -7.9544      2.00000
      2      -7.6052      2.00000
      3      -5.8978      2.00000
      4      -5.7795      2.00000
      5      -5.7650      2.00000
      6      -5.7099      2.00000
      7      -5.6663      2.00000
      8      -5.6142      2.00000
      9      -5.5379      2.00000
     10      -5.4339      2.00000
     11      -5.1876      2.00000
     12      -3.9095      2.00000
     13       0.9514      2.00000
     14       2.1886      2.00000
     15       2.8938      2.00000
     16       5.2932      2.00000
     17       5.5135      2.00000
     18       7.2991      2.00000
     19      15.0264      0.00000
     20      15.8048      0.00000
     21      16.4553      0.00000
     22      17.4811      0.00000
     23      17.7260      0.00000
     24      19.3216      0.00000
     25      21.6868      0.00000
     26      22.1606      0.00000
     27      23.4631      0.00000
     28      27.4868      0.00000
     29      29.3208      0.00000
     30      30.1340      0.00000
     31      30.7117      0.00000
     32      31.3141      0.00000

 k-point    63 :      -0.2500   -0.1250    0.0000
  band No.  band energies     occupation 
      1      -8.6002      2.00000
      2      -7.7447      2.00000
      3      -5.8848      2.00000
      4      -5.8135      2.00000
      5      -5.7683      2.00000
      6      -5.7143      2.00000
      7      -5.6713      2.00000
      8      -5.6028      2.00000
      9      -5.6000      2.00000
     10      -5.5130      2.00000
     11      -5.4405      2.00000
     12      -3.6568      2.00000
     13       1.1860      2.00000
     14       2.4320      2.00000
     15       3.8228      2.00000
     16       5.1281      2.00000
     17       6.5449      2.00000
     18       7.2547      2.00000
     19      14.2935      0.00000
     20      15.3889      0.00000
     21      16.9281      0.00000
     22      18.0304      0.00000
     23      18.4433      0.00000
     24      20.2141      0.00000
     25      21.3886      0.00000
     26      23.1257      0.00000
     27      23.8018      0.00000
     28      26.1685      0.00000
     29      27.6569      0.00000
     30      29.2346      0.00000
     31      31.6286      0.00000
     32      32.6770      0.00000

 k-point    64 :      -0.1250   -0.1250    0.0000
  band No.  band energies     occupation 
      1      -9.2362      2.00000
      2      -7.9769      2.00000
      3      -5.9485      2.00000
      4      -5.8422      2.00000
      5      -5.8359      2.00000
      6      -5.6927      2.00000
      7      -5.6640      2.00000
      8      -5.5818      2.00000
      9      -5.5742      2.00000
     10      -5.4815      2.00000
     11      -5.4497      2.00000
     12      -3.6672      2.00000
     13       0.5256      2.00000
     14       3.5645      2.00000
     15       5.3004      2.00000
     16       5.6385      2.00000
     17       7.3641      2.00000
     18       7.6381      2.00000
     19      12.9904      0.00000
     20      13.7673      0.00000
     21      17.7794      0.00000
     22      18.4429      0.00000
     23      19.2794      0.00000
     24      19.9642      0.00000
     25      21.7863      0.00000
     26      23.0506      0.00000
     27      25.2833      0.00000
     28      25.3846      0.00000
     29      27.4470      0.00000
     30      28.6092      0.00000
     31      28.8830      0.00000
     32      30.9169      0.00000

 k-point    65 :      -0.0000    0.0000    0.1667
  band No.  band energies     occupation 
      1      -9.6500      2.00000
      2      -8.2923      2.00000
      3      -5.9643      2.00000
      4      -5.9123      2.00000
      5      -5.8601      2.00000
      6      -5.6573      2.00000
      7      -5.6476      2.00000
      8      -5.5623      2.00000
      9      -5.5606      2.00000
     10      -5.4455      2.00000
     11      -5.3807      2.00000
     12      -4.2403      2.00000
     13       0.7125      2.00000
     14       5.1837      2.00000
     15       6.9145      2.00000
     16       6.9272      2.00000
     17       7.3690      2.00000
     18       8.1954      2.00000
     19      11.4515      0.00000
     20      11.6108      0.00000
     21      17.5367      0.00000
     22      18.9256      0.00000
     23      19.3161      0.00000
     24      21.2494      0.00000
     25      22.2611      0.00000
     26      22.3984      0.00000
     27      22.6338      0.00000
     28      26.1245      0.00000
     29      26.8591      0.00000
     30      27.5540      0.00000
     31      27.8331      0.00000
     32      30.4844      0.00000

 k-point    66 :       0.1250    0.0000    0.1667
  band No.  band energies     occupation 
      1      -9.4337      2.00000
      2      -8.1768      2.00000
      3      -5.9628      2.00000
      4      -5.8958      2.00000
      5      -5.8357      2.00000
      6      -5.6660      2.00000
      7      -5.6483      2.00000
      8      -5.5894      2.00000
      9      -5.5552      2.00000
     10      -5.4787      2.00000
     11      -5.4050      2.00000
     12      -4.1480      2.00000
     13       0.8915      2.00000
     14       4.3983      2.00000
     15       5.7930      2.00000
     16       6.6897      2.00000
     17       7.5166      2.00000
     18       8.0014      2.00000
     19      12.2867      0.00000
     20      12.4531      0.00000
     21      17.6731      0.00000
     22      18.5304      0.00000
     23      18.9819      0.00000
     24      20.1507      0.00000
     25      22.1595      0.00000
     26      22.6884      0.00000
     27      23.3278      0.00000
     28      24.9624      0.00000
     29      27.1470      0.00000
     30      28.3032      0.00000
     31      29.7676      0.00000
     32      31.3080      0.00000

 k-point    67 :       0.2500    0.0000    0.1667
  band No.  band energies     occupation 
      1      -8.8413      2.00000
      2      -7.8953      2.00000
      3      -5.9644      2.00000
      4      -5.8844      2.00000
      5      -5.7891      2.00000
      6      -5.6669      2.00000
      7      -5.6578      2.00000
      8      -5.6173      2.00000
      9      -5.5700      2.00000
     10      -5.4950      2.00000
     11      -5.4092      2.00000
     12      -3.9857      2.00000
     13       1.1164      2.00000
     14       2.9319      2.00000
     15       3.8486      2.00000
     16       6.7507      2.00000
     17       7.1567      2.00000
     18       7.9707      2.00000
     19      13.3064      0.00000
     20      14.0906      0.00000
     21      16.9401      0.00000
     22      17.6268      0.00000
     23      18.5015      0.00000
     24      19.3008      0.00000
     25      22.2354      0.00000
     26      22.9784      0.00000
     27      23.8047      0.00000
     28      25.8950      0.00000
     29      27.2193      0.00000
     30      29.1107      0.00000
     31      29.9464      0.00000
     32      30.6241      0.00000

 k-point    68 :       0.3750    0.0000    0.1667
  band No.  band energies     occupation 
      1      -8.1050      2.00000
      2      -7.6280      2.00000
      3      -5.9404      2.00000
      4      -5.8539      2.00000
      5      -5.8031      2.00000
      6      -5.7378      2.00000
      7      -5.6518      2.00000
      8      -5.6144      2.00000
      9      -5.5081      2.00000
     10      -5.4308      2.00000
     11      -5.2764      2.00000
     12      -4.0639      2.00000
     13       0.4341      2.00000
     14       1.9513      2.00000
     15       3.2640      2.00000
     16       6.0813      2.00000
     17       7.0864      2.00000
     18       8.0392      2.00000
     19      13.9919      0.00000
     20      15.2535      0.00000
     21      16.2784      0.00000
     22      17.2705      0.00000
     23      17.9745      0.00000
     24      18.4044      0.00000
     25      22.3731      0.00000
     26      23.2087      0.00000
     27      23.6832      0.00000
     28      26.7020      0.00000
     29      27.8448      0.00000
     30      28.9191      0.00000
     31      30.2767      0.00000
     32      30.9282      0.00000

 k-point    69 :       0.5000    0.0000    0.1667
  band No.  band energies     occupation 
      1      -7.7174      2.00000
      2      -7.5592      2.00000
      3      -5.9245      2.00000
      4      -5.8295      2.00000
      5      -5.7805      2.00000
      6      -5.7749      2.00000
      7      -5.6385      2.00000
      8      -5.6304      2.00000
      9      -5.4717      2.00000
     10      -5.4278      2.00000
     11      -4.7805      2.00000
     12      -4.6035      2.00000
     13       0.3646      2.00000
     14       0.8650      2.00000
     15       4.1540      2.00000
     16       5.0937      2.00000
     17       7.2154      2.00000
     18       8.0577      2.00000
     19      14.5719      0.00000
     20      14.7053      0.00000
     21      17.0256      0.00000
     22      17.1916      0.00000
     23      17.8208      0.00000
     24      17.8685      0.00000
     25      22.0075      0.00000
     26      22.6858      0.00000
     27      24.6852      0.00000
     28      25.6563      0.00000
     29      28.3592      0.00000
     30      29.2997      0.00000
     31      30.4255      0.00000
     32      31.2468      0.00000

 k-point    70 :      -0.3750   -0.0000    0.1667
  band No.  band energies     occupation 
      1      -8.1050      2.00000
      2      -7.6280      2.00000
      3      -5.9404      2.00000
      4      -5.8539      2.00000
      5      -5.8031      2.00000
      6      -5.7378      2.00000
      7      -5.6518      2.00000
      8      -5.6144      2.00000
      9      -5.5081      2.00000
     10      -5.4308      2.00000
     11      -5.2764      2.00000
     12      -4.0639      2.00000
     13       0.4341      2.00000
     14       1.9512      2.00000
     15       3.2639      2.00000
     16       6.0813      2.00000
     17       7.0864      2.00000
     18       8.0392      2.00000
     19      13.9921      0.00000
     20      15.2533      0.00000
     21      16.2782      0.00000
     22      17.2705      0.00000
     23      17.9746      0.00000
     24      18.4045      0.00000
     25      22.3730      0.00000
     26      23.2088      0.00000
     27      23.6831      0.00000
     28      26.7021      0.00000
     29      27.8448      0.00000
     30      28.9191      0.00000
     31      30.2766      0.00000
     32      30.9284      0.00000

 k-point    71 :      -0.2500   -0.0000    0.1667
  band No.  band energies     occupation 
      1      -8.8413      2.00000
      2      -7.8953      2.00000
      3      -5.9644      2.00000
      4      -5.8844      2.00000
      5      -5.7891      2.00000
      6      -5.6668      2.00000
      7      -5.6578      2.00000
      8      -5.6174      2.00000
      9      -5.5701      2.00000
     10      -5.4950      2.00000
     11      -5.4092      2.00000
     12      -3.9856      2.00000
     13       1.1165      2.00000
     14       2.9319      2.00000
     15       3.8486      2.00000
     16       6.7507      2.00000
     17       7.1567      2.00000
     18       7.9707      2.00000
     19      13.3064      0.00000
     20      14.0906      0.00000
     21      16.9399      0.00000
     22      17.6268      0.00000
     23      18.5016      0.00000
     24      19.3009      0.00000
     25      22.2353      0.00000
     26      22.9783      0.00000
     27      23.8047      0.00000
     28      25.8950      0.00000
     29      27.2193      0.00000
     30      29.1108      0.00000
     31      29.9464      0.00000
     32      30.6241      0.00000

 k-point    72 :      -0.1250   -0.0000    0.1667
  band No.  band energies     occupation 
      1      -9.4337      2.00000
      2      -8.1767      2.00000
      3      -5.9628      2.00000
      4      -5.8958      2.00000
      5      -5.8357      2.00000
      6      -5.6660      2.00000
      7      -5.6483      2.00000
      8      -5.5894      2.00000
      9      -5.5552      2.00000
     10      -5.4787      2.00000
     11      -5.4050      2.00000
     12      -4.1480      2.00000
     13       0.8915      2.00000
     14       4.3983      2.00000
     15       5.7929      2.00000
     16       6.6897      2.00000
     17       7.5166      2.00000
     18       8.0014      2.00000
     19      12.2867      0.00000
     20      12.4531      0.00000
     21      17.6730      0.00000
     22      18.5304      0.00000
     23      18.9820      0.00000
     24      20.1507      0.00000
     25      22.1594      0.00000
     26      22.6885      0.00000
     27      23.3279      0.00000
     28      24.9623      0.00000
     29      27.1470      0.00000
     30      28.3032      0.00000
     31      29.7676      0.00000
     32      31.3079      0.00000

 k-point    73 :       0.0000    0.1250    0.1667
  band No.  band energies     occupation 
      1      -9.4337      2.00000
      2      -8.1767      2.00000
      3      -5.9628      2.00000
      4      -5.8958      2.00000
      5      -5.8357      2.00000
      6      -5.6660      2.00000
      7      -5.6483      2.00000
      8      -5.5894      2.00000
      9      -5.5552      2.00000
     10      -5.4787      2.00000
     11      -5.4050      2.00000
     12      -4.1480      2.00000
     13       0.8915      2.00000
     14       4.3983      2.00000
     15       5.7929      2.00000
     16       6.6897      2.00000
     17       7.5166      2.00000
     18       8.0014      2.00000
     19      12.2867      0.00000
     20      12.4531      0.00000
     21      17.6730      0.00000
     22      18.5304      0.00000
     23      18.9820      0.00000
     24      20.1507      0.00000
     25      22.1594      0.00000
     26      22.6885      0.00000
     27      23.3279      0.00000
     28      24.9623      0.00000
     29      27.1470      0.00000
     30      28.3032      0.00000
     31      29.7676      0.00000
     32      31.3079      0.00000

 k-point    74 :       0.1250    0.1250    0.1667
  band No.  band energies     occupation 
      1      -9.1240      2.00000
      2      -8.0117      2.00000
      3      -5.9492      2.00000
      4      -5.8536      2.00000
      5      -5.8527      2.00000
      6      -5.6743      2.00000
      7      -5.6410      2.00000
      8      -5.5888      2.00000
      9      -5.5600      2.00000
     10      -5.5010      2.00000
     11      -5.4579      2.00000
     12      -4.0926      2.00000
     13       1.0750      2.00000
     14       3.8474      2.00000
     15       4.8618      2.00000
     16       5.7545      2.00000
     17       7.4373      2.00000
     18       7.4848      2.00000
     19      13.1624      0.00000
     20      13.8991      0.00000
     21      17.7940      0.00000
     22      18.1141      0.00000
     23      18.9065      0.00000
     24      18.9515      0.00000
     25      22.4447      0.00000
     26      23.5240      0.00000
     27      25.2403      0.00000
     28      25.2689      0.00000
     29      27.9112      0.00000
     30      28.0578      0.00000
     31      29.3524      0.00000
     32      31.6697      0.00000

 k-point    75 :       0.2500    0.1250    0.1667
  band No.  band energies     occupation 
      1      -8.5058      2.00000
      2      -7.7545      2.00000
      3      -5.8937      2.00000
      4      -5.8323      2.00000
      5      -5.7844      2.00000
      6      -5.6887      2.00000
      7      -5.6730      2.00000
      8      -5.6053      2.00000
      9      -5.5796      2.00000
     10      -5.5032      2.00000
     11      -5.4460      2.00000
     12      -3.9679      2.00000
     13       1.1467      2.00000
     14       3.1182      2.00000
     15       3.4106      2.00000
     16       5.2667      2.00000
     17       6.7944      2.00000
     18       7.1228      2.00000
     19      14.1472      0.00000
     20      15.5082      0.00000
     21      16.9847      0.00000
     22      17.6030      0.00000
     23      18.3525      0.00000
     24      19.2931      0.00000
     25      21.8544      0.00000
     26      23.6161      0.00000
     27      23.8759      0.00000
     28      26.5653      0.00000
     29      27.7417      0.00000
     30      29.0704      0.00000
     31      31.2301      0.00000
     32      31.9343      0.00000

 k-point    76 :       0.3750    0.1250    0.1667
  band No.  band energies     occupation 
      1      -7.8934      2.00000
      2      -7.5910      2.00000
      3      -5.9055      2.00000
      4      -5.8008      2.00000
      5      -5.7682      2.00000
      6      -5.7398      2.00000
      7      -5.6791      2.00000
      8      -5.5813      2.00000
      9      -5.5022      2.00000
     10      -5.4404      2.00000
     11      -5.1608      2.00000
     12      -4.0383      2.00000
     13       0.5725      2.00000
     14       1.7744      2.00000
     15       3.6363      2.00000
     16       5.6115      2.00000
     17       5.8381      2.00000
     18       7.1475      2.00000
     19      14.4459      0.00000
     20      16.0501      0.00000
     21      16.4006      0.00000
     22      16.9115      0.00000
     23      18.2437      0.00000
     24      19.2099      0.00000
     25      20.7083      0.00000
     26      23.1253      0.00000
     27      23.5773      0.00000
     28      27.6444      0.00000
     29      28.4760      0.00000
     30      29.8470      0.00000
     31      30.6451      0.00000
     32      31.7519      0.00000

 k-point    77 :       0.5000    0.1250    0.1667
  band No.  band energies     occupation 
      1      -7.7568      2.00000
      2      -7.6013      2.00000
      3      -5.9132      2.00000
      4      -5.8499      2.00000
      5      -5.8205      2.00000
      6      -5.7669      2.00000
      7      -5.6465      2.00000
      8      -5.5591      2.00000
      9      -5.4801      2.00000
     10      -5.4109      2.00000
     11      -4.6258      2.00000
     12      -4.2629      2.00000
     13       0.5126      2.00000
     14       1.1165      2.00000
     15       4.1620      2.00000
     16       5.1110      2.00000
     17       6.3776      2.00000
     18       7.3105      2.00000
     19      14.5519      0.00000
     20      15.1426      0.00000
     21      16.0334      0.00000
     22      16.7976      0.00000
     23      17.6893      0.00000
     24      18.1343      0.00000
     25      21.1149      0.00000
     26      23.2357      0.00000
     27      24.4928      0.00000
     28      26.3276      0.00000
     29      28.4148      0.00000
     30      30.0152      0.00000
     31      31.2418      0.00000
     32      31.8033      0.00000

 k-point    78 :      -0.3750    0.1250    0.1667
  band No.  band energies     occupation 
      1      -8.2277      2.00000
      2      -7.7123      2.00000
      3      -5.9337      2.00000
      4      -5.8579      2.00000
      5      -5.8398      2.00000
      6      -5.7452      2.00000
      7      -5.6509      2.00000
      8      -5.5576      2.00000
      9      -5.5141      2.00000
     10      -5.4196      2.00000
     11      -5.1449      2.00000
     12      -3.7168      2.00000
     13       0.7658      2.00000
     14       2.4549      2.00000
     15       3.1666      2.00000
     16       6.1057      2.00000
     17       6.8497      2.00000
     18       7.3392      2.00000
     19      14.1201      0.00000
     20      14.5941      0.00000
     21      15.6360      0.00000
     22      16.6612      0.00000
     23      17.8053      0.00000
     24      18.1239      0.00000
     25      21.9164      0.00000
     26      22.3208      0.00000
     27      25.2026      0.00000
     28      25.9602      0.00000
     29      27.1536      0.00000
     30      29.5360      0.00000
     31      30.8379      0.00000
     32      32.2969      0.00000

 k-point    79 :      -0.2500    0.1250    0.1667
  band No.  band energies     occupation 
      1      -8.8748      2.00000
      2      -7.9503      2.00000
      3      -5.9266      2.00000
      4      -5.8505      2.00000
      5      -5.7749      2.00000
      6      -5.7270      2.00000
      7      -5.6655      2.00000
      8      -5.6024      2.00000
      9      -5.5793      2.00000
     10      -5.4542      2.00000
     11      -5.3726      2.00000
     12      -3.7994      2.00000
     13       1.3792      2.00000
     14       3.2417      2.00000
     15       4.4363      2.00000
     16       6.3023      2.00000
     17       6.8316      2.00000
     18       7.5242      2.00000
     19      13.4393      0.00000
     20      13.6717      0.00000
     21      16.6846      0.00000
     22      17.4533      0.00000
     23      18.4280      0.00000
     24      18.9930      0.00000
     25      20.8526      0.00000
     26      21.3448      0.00000
     27      24.4295      0.00000
     28      25.7754      0.00000
     29      27.1796      0.00000
     30      28.5221      0.00000
     31      30.0811      0.00000
     32      32.7218      0.00000

 k-point    80 :      -0.1250    0.1250    0.1667
  band No.  band energies     occupation 
      1      -9.3382      2.00000
      2      -8.1481      2.00000
      3      -5.9132      2.00000
      4      -5.8902      2.00000
      5      -5.7998      2.00000
      6      -5.6983      2.00000
      7      -5.6537      2.00000
      8      -5.6222      2.00000
      9      -5.5773      2.00000
     10      -5.4793      2.00000
     11      -5.3833      2.00000
     12      -4.0341      2.00000
     13       1.0398      2.00000
     14       4.5912      2.00000
     15       6.1098      2.00000
     16       6.4043      2.00000
     17       6.5115      2.00000
     18       7.8298      2.00000
     19      12.6310      0.00000
     20      12.7839      0.00000
     21      18.0045      0.00000
     22      18.3429      0.00000
     23      18.9202      0.00000
     24      20.1343      0.00000
     25      20.4334      0.00000
     26      20.9636      0.00000
     27      23.0940      0.00000
     28      25.2447      0.00000
     29      27.7295      0.00000
     30      28.9780      0.00000
     31      29.4790      0.00000
     32      30.7356      0.00000

 k-point    81 :       0.0000    0.2500    0.1667
  band No.  band energies     occupation 
      1      -8.8413      2.00000
      2      -7.8953      2.00000
      3      -5.9644      2.00000
      4      -5.8844      2.00000
      5      -5.7891      2.00000
      6      -5.6668      2.00000
      7      -5.6578      2.00000
      8      -5.6174      2.00000
      9      -5.5701      2.00000
     10      -5.4950      2.00000
     11      -5.4092      2.00000
     12      -3.9856      2.00000
     13       1.1165      2.00000
     14       2.9319      2.00000
     15       3.8486      2.00000
     16       6.7507      2.00000
     17       7.1567      2.00000
     18       7.9707      2.00000
     19      13.3064      0.00000
     20      14.0906      0.00000
     21      16.9399      0.00000
     22      17.6268      0.00000
     23      18.5016      0.00000
     24      19.3009      0.00000
     25      22.2353      0.00000
     26      22.9783      0.00000
     27      23.8047      0.00000
     28      25.8950      0.00000
     29      27.2193      0.00000
     30      29.1108      0.00000
     31      29.9464      0.00000
     32      30.6241      0.00000

 k-point    82 :       0.1250    0.2500    0.1667
  band No.  band energies     occupation 
      1      -8.5058      2.00000
      2      -7.7545      2.00000
      3      -5.8937      2.00000
      4      -5.8323      2.00000
      5      -5.7844      2.00000
      6      -5.6887      2.00000
      7      -5.6730      2.00000
      8      -5.6053      2.00000
      9      -5.5796      2.00000
     10      -5.5032      2.00000
     11      -5.4460      2.00000
     12      -3.9679      2.00000
     13       1.1468      2.00000
     14       3.1182      2.00000
     15       3.4105      2.00000
     16       5.2667      2.00000
     17       6.7945      2.00000
     18       7.1227      2.00000
     19      14.1473      0.00000
     20      15.5082      0.00000
     21      16.9846      0.00000
     22      17.6029      0.00000
     23      18.3526      0.00000
     24      19.2932      0.00000
     25      21.8544      0.00000
     26      23.6160      0.00000
     27      23.8759      0.00000
     28      26.5653      0.00000
     29      27.7417      0.00000
     30      29.0705      0.00000
     31      31.2298      0.00000
     32      31.9345      0.00000

 k-point    83 :       0.2500    0.2500    0.1667
  band No.  band energies     occupation 
      1      -8.0396      2.00000
      2      -7.6370      2.00000
      3      -5.8873      2.00000
      4      -5.7745      2.00000
      5      -5.7567      2.00000
      6      -5.6686      2.00000
      7      -5.6279      2.00000
      8      -5.6228      2.00000
      9      -5.5399      2.00000
     10      -5.4937      2.00000
     11      -5.2868      2.00000
     12      -3.7628      2.00000
     13       1.3457      2.00000
     14       2.8316      2.00000
     15       3.4076      2.00000
     16       3.9247      2.00000
     17       5.8258      2.00000
     18       6.3437      2.00000
     19      15.0195      0.00000
     20      15.6556      0.00000
     21      16.3304      0.00000
     22      17.5804      0.00000
     23      18.2701      0.00000
     24      18.9220      0.00000
     25      22.1392      0.00000
     26      22.3980      0.00000
     27      23.3322      0.00000
     28      27.4244      0.00000
     29      29.3781      0.00000
     30      29.8922      0.00000
     31      31.3738      0.00000
     32      32.9427      0.00000

 k-point    84 :       0.3750    0.2500    0.1667
  band No.  band energies     occupation 
      1      -7.7487      2.00000
      2      -7.6517      2.00000
      3      -5.9420      2.00000
      4      -5.8507      2.00000
      5      -5.7681      2.00000
      6      -5.6541      2.00000
      7      -5.6051      2.00000
      8      -5.5406      2.00000
      9      -5.4865      2.00000
     10      -5.4343      2.00000
     11      -4.5391      2.00000
     12      -3.6635      2.00000
     13       1.1612      2.00000
     14       1.8689      2.00000
     15       3.0926      2.00000
     16       4.9417      2.00000
     17       5.2586      2.00000
     18       5.7734      2.00000
     19      14.1778      0.00000
     20      14.8591      0.00000
     21      15.3368      0.00000
     22      17.0788      0.00000
     23      18.2363      0.00000
     24      19.0449      0.00000
     25      21.4756      0.00000
     26      23.0010      0.00000
     27      24.0504      0.00000
     28      27.1162      0.00000
     29      29.1120      0.00000
     30      30.2590      0.00000
     31      31.1309      0.00000
     32      32.8415      0.00000

 k-point    85 :       0.5000    0.2500    0.1667
  band No.  band energies     occupation 
      1      -7.8592      2.00000
      2      -7.6955      2.00000
      3      -5.9563      2.00000
      4      -5.9068      2.00000
      5      -5.7540      2.00000
      6      -5.6644      2.00000
      7      -5.6144      2.00000
      8      -5.5161      2.00000
      9      -5.4501      2.00000
     10      -5.3866      2.00000
     11      -4.1903      2.00000
     12      -3.4940      2.00000
     13       0.9836      2.00000
     14       1.6706      2.00000
     15       3.8877      2.00000
     16       4.3656      2.00000
     17       5.6810      2.00000
     18       6.2486      2.00000
     19      12.7007      0.00000
     20      13.5091      0.00000
     21      15.2204      0.00000
     22      16.6092      0.00000
     23      18.3051      0.00000
     24      19.4050      0.00000
     25      21.4912      0.00000
     26      22.6943      0.00000
     27      24.1827      0.00000
     28      26.6169      0.00000
     29      29.0557      0.00000
     30      30.5545      0.00000
     31      31.0979      0.00000
     32      33.5462      0.00000

 k-point    86 :      -0.3750    0.2500    0.1667
  band No.  band energies     occupation 
      1      -8.2131      2.00000
      2      -7.7846      2.00000
      3      -5.9232      2.00000
      4      -5.8934      2.00000
      5      -5.7600      2.00000
      6      -5.6749      2.00000
      7      -5.6306      2.00000
      8      -5.5356      2.00000
      9      -5.4706      2.00000
     10      -5.3915      2.00000
     11      -4.8616      2.00000
     12      -3.1785      2.00000
     13       1.5329      2.00000
     14       2.9315      2.00000
     15       3.2151      2.00000
     16       5.0456      2.00000
     17       5.5940      2.00000
     18       6.8986      2.00000
     19      12.1600      0.00000
     20      12.8637      0.00000
     21      15.8368      0.00000
     22      16.6874      0.00000
     23      17.9068      0.00000
     24      19.6454      0.00000
     25      21.3475      0.00000
     26      21.7967      0.00000
     27      24.3065      0.00000
     28      26.3257      0.00000
     29      27.7796      0.00000
     30      30.3044      0.00000
     31      31.5319      0.00000
     32      33.2729      0.00000

 k-point    87 :      -0.2500    0.2500    0.1667
  band No.  band energies     occupation 
      1      -8.6173      2.00000
      2      -7.8961      2.00000
      3      -5.8733      2.00000
      4      -5.8439      2.00000
      5      -5.7933      2.00000
      6      -5.6692      2.00000
      7      -5.6494      2.00000
      8      -5.6103      2.00000
      9      -5.5661      2.00000
     10      -5.3841      2.00000
     11      -5.2857      2.00000
     12      -3.4681      2.00000
     13       1.8739      2.00000
     14       3.3576      2.00000
     15       4.4898      2.00000
     16       5.1592      2.00000
     17       5.5961      2.00000
     18       7.2521      2.00000
     19      12.8544      0.00000
     20      13.2460      0.00000
     21      16.4533      0.00000
     22      17.1683      0.00000
     23      17.9525      0.00000
     24      19.8433      0.00000
     25      20.3587      0.00000
     26      20.7270      0.00000
     27      25.1714      0.00000
     28      25.5496      0.00000
     29      26.5679      0.00000
     30      29.0734      0.00000
     31      32.4081      0.00000
     32      33.1868      0.00000

 k-point    88 :      -0.1250    0.2500    0.1667
  band No.  band energies     occupation 
      1      -8.8748      2.00000
      2      -7.9503      2.00000
      3      -5.9266      2.00000
      4      -5.8505      2.00000
      5      -5.7749      2.00000
      6      -5.7270      2.00000
      7      -5.6655      2.00000
      8      -5.6024      2.00000
      9      -5.5793      2.00000
     10      -5.4542      2.00000
     11      -5.3726      2.00000
     12      -3.7994      2.00000
     13       1.3792      2.00000
     14       3.2417      2.00000
     15       4.4363      2.00000
     16       6.3023      2.00000
     17       6.8316      2.00000
     18       7.5242      2.00000
     19      13.4393      0.00000
     20      13.6717      0.00000
     21      16.6846      0.00000
     22      17.4533      0.00000
     23      18.4280      0.00000
     24      18.9930      0.00000
     25      20.8526      0.00000
     26      21.3448      0.00000
     27      24.4295      0.00000
     28      25.7754      0.00000
     29      27.1796      0.00000
     30      28.5221      0.00000
     31      30.0811      0.00000
     32      32.7218      0.00000

 k-point    89 :       0.0000    0.3750    0.1667
  band No.  band energies     occupation 
      1      -8.1050      2.00000
      2      -7.6280      2.00000
      3      -5.9404      2.00000
      4      -5.8539      2.00000
      5      -5.8031      2.00000
      6      -5.7378      2.00000
      7      -5.6518      2.00000
      8      -5.6144      2.00000
      9      -5.5081      2.00000
     10      -5.4308      2.00000
     11      -5.2764      2.00000
     12      -4.0639      2.00000
     13       0.4341      2.00000
     14       1.9512      2.00000
     15       3.2639      2.00000
     16       6.0813      2.00000
     17       7.0864      2.00000
     18       8.0392      2.00000
     19      13.9921      0.00000
     20      15.2533      0.00000
     21      16.2782      0.00000
     22      17.2705      0.00000
     23      17.9746      0.00000
     24      18.4045      0.00000
     25      22.3730      0.00000
     26      23.2088      0.00000
     27      23.6831      0.00000
     28      26.7021      0.00000
     29      27.8448      0.00000
     30      28.9191      0.00000
     31      30.2766      0.00000
     32      30.9284      0.00000

 k-point    90 :       0.1250    0.3750    0.1667
  band No.  band energies     occupation 
      1      -7.8934      2.00000
      2      -7.5910      2.00000
      3      -5.9054      2.00000
      4      -5.8008      2.00000
      5      -5.7682      2.00000
      6      -5.7399      2.00000
      7      -5.6791      2.00000
      8      -5.5813      2.00000
      9      -5.5022      2.00000
     10      -5.4404      2.00000
     11      -5.1608      2.00000
     12      -4.0383      2.00000
     13       0.5726      2.00000
     14       1.7744      2.00000
     15       3.6363      2.00000
     16       5.6115      2.00000
     17       5.8382      2.00000
     18       7.1475      2.00000
     19      14.4460      0.00000
     20      16.0500      0.00000
     21      16.4005      0.00000
     22      16.9115      0.00000
     23      18.2439      0.00000
     24      19.2099      0.00000
     25      20.7084      0.00000
     26      23.1252      0.00000
     27      23.5771      0.00000
     28      27.6444      0.00000
     29      28.4759      0.00000
     30      29.8469      0.00000
     31      30.6451      0.00000
     32      31.7521      0.00000

 k-point    91 :       0.2500    0.3750    0.1667
  band No.  band energies     occupation 
      1      -7.7487      2.00000
      2      -7.6517      2.00000
      3      -5.9420      2.00000
      4      -5.8507      2.00000
      5      -5.7681      2.00000
      6      -5.6541      2.00000
      7      -5.6051      2.00000
      8      -5.5405      2.00000
      9      -5.4865      2.00000
     10      -5.4343      2.00000
     11      -4.5391      2.00000
     12      -3.6635      2.00000
     13       1.1612      2.00000
     14       1.8689      2.00000
     15       3.0926      2.00000
     16       4.9417      2.00000
     17       5.2587      2.00000
     18       5.7734      2.00000
     19      14.1779      0.00000
     20      14.8590      0.00000
     21      15.3367      0.00000
     22      17.0787      0.00000
     23      18.2364      0.00000
     24      19.0449      0.00000
     25      21.4757      0.00000
     26      23.0009      0.00000
     27      24.0503      0.00000
     28      27.1161      0.00000
     29      29.1120      0.00000
     30      30.2590      0.00000
     31      31.1311      0.00000
     32      32.8415      0.00000

 k-point    92 :       0.3750    0.3750    0.1667
  band No.  band energies     occupation 
      1      -7.7948      2.00000
      2      -7.7385      2.00000
      3      -5.9688      2.00000
      4      -5.9195      2.00000
      5      -5.7533      2.00000
      6      -5.6172      2.00000
      7      -5.5431      2.00000
      8      -5.5019      2.00000
      9      -5.4055      2.00000
     10      -5.3814      2.00000
     11      -3.5486      2.00000
     12      -3.3028      2.00000
     13       1.4983      2.00000
     14       1.8612      2.00000
     15       2.4204      2.00000
     16       4.3177      2.00000
     17       5.1312      2.00000
     18       5.8051      2.00000
     19      12.1971      0.00000
     20      12.9064      0.00000
     21      14.3852      0.00000
     22      16.7642      0.00000
     23      18.8242      0.00000
     24      19.7403      0.00000
     25      22.4155      0.00000
     26      22.7285      0.00000
     27      24.1242      0.00000
     28      27.0749      0.00000
     29      29.6701      0.00000
     30      30.1636      0.00000
     31      30.6053      0.00000
     32      33.5835      0.00000

 k-point    93 :       0.5000    0.3750    0.1667
  band No.  band energies     occupation 
      1      -7.9587      2.00000
      2      -7.7865      2.00000
      3      -5.9608      2.00000
      4      -5.9503      2.00000
      5      -5.7248      2.00000
      6      -5.6414      2.00000
      7      -5.5374      2.00000
      8      -5.4924      2.00000
      9      -5.3368      2.00000
     10      -5.3257      2.00000
     11      -3.5692      2.00000
     12      -2.6913      2.00000
     13       1.4046      2.00000
     14       1.6789      2.00000
     15       3.4639      2.00000
     16       4.0677      2.00000
     17       4.7798      2.00000
     18       6.4312      2.00000
     19      10.5627      0.00000
     20      11.5063      0.00000
     21      14.3623      0.00000
     22      16.4985      0.00000
     23      18.9082      0.00000
     24      20.7320      0.00000
     25      21.5312      0.00000
     26      22.3891      0.00000
     27      24.2481      0.00000
     28      27.8679      0.00000
     29      29.2656      0.00000
     30      29.8691      0.00000
     31      31.5889      0.00000
     32      32.6737      0.00000

 k-point    94 :      -0.3750    0.3750    0.1667
  band No.  band energies     occupation 
      1      -8.1072      2.00000
      2      -7.8114      2.00000
      3      -5.9455      2.00000
      4      -5.9211      2.00000
      5      -5.7384      2.00000
      6      -5.6519      2.00000
      7      -5.5528      2.00000
      8      -5.5073      2.00000
      9      -5.3834      2.00000
     10      -5.3322      2.00000
     11      -4.2953      2.00000
     12      -2.6696      2.00000
     13       2.2514      2.00000
     14       2.2817      2.00000
     15       2.8706      2.00000
     16       4.7640      2.00000
     17       4.7902      2.00000
     18       6.6272      2.00000
     19      10.5448      0.00000
     20      11.4961      0.00000
     21      15.0717      0.00000
     22      16.7511      0.00000
     23      18.0674      0.00000
     24      20.9468      0.00000
     25      21.4614      0.00000
     26      22.0260      0.00000
     27      23.8193      0.00000
     28      27.5518      0.00000
     29      28.4653      0.00000
     30      30.4165      0.00000
     31      31.0822      0.00000
     32      32.7622      0.00000

 k-point    95 :      -0.2500    0.3750    0.1667
  band No.  band energies     occupation 
      1      -8.2131      2.00000
      2      -7.7846      2.00000
      3      -5.9232      2.00000
      4      -5.8934      2.00000
      5      -5.7600      2.00000
      6      -5.6749      2.00000
      7      -5.6306      2.00000
      8      -5.5356      2.00000
      9      -5.4706      2.00000
     10      -5.3915      2.00000
     11      -4.8616      2.00000
     12      -3.1785      2.00000
     13       1.5329      2.00000
     14       2.9315      2.00000
     15       3.2151      2.00000
     16       5.0456      2.00000
     17       5.5940      2.00000
     18       6.8986      2.00000
     19      12.1600      0.00000
     20      12.8637      0.00000
     21      15.8368      0.00000
     22      16.6874      0.00000
     23      17.9068      0.00000
     24      19.6454      0.00000
     25      21.3475      0.00000
     26      21.7967      0.00000
     27      24.3065      0.00000
     28      26.3257      0.00000
     29      27.7796      0.00000
     30      30.3044      0.00000
     31      31.5319      0.00000
     32      33.2729      0.00000

 k-point    96 :      -0.1250    0.3750    0.1667
  band No.  band energies     occupation 
      1      -8.2277      2.00000
      2      -7.7123      2.00000
      3      -5.9337      2.00000
      4      -5.8579      2.00000
      5      -5.8398      2.00000
      6      -5.7452      2.00000
      7      -5.6509      2.00000
      8      -5.5576      2.00000
      9      -5.5141      2.00000
     10      -5.4196      2.00000
     11      -5.1449      2.00000
     12      -3.7168      2.00000
     13       0.7658      2.00000
     14       2.4549      2.00000
     15       3.1666      2.00000
     16       6.1057      2.00000
     17       6.8497      2.00000
     18       7.3392      2.00000
     19      14.1201      0.00000
     20      14.5941      0.00000
     21      15.6360      0.00000
     22      16.6612      0.00000
     23      17.8053      0.00000
     24      18.1239      0.00000
     25      21.9164      0.00000
     26      22.3208      0.00000
     27      25.2026      0.00000
     28      25.9602      0.00000
     29      27.1536      0.00000
     30      29.5360      0.00000
     31      30.8379      0.00000
     32      32.2969      0.00000

 k-point    97 :       0.0000    0.5000    0.1667
  band No.  band energies     occupation 
      1      -7.7174      2.00000
      2      -7.5592      2.00000
      3      -5.9245      2.00000
      4      -5.8295      2.00000
      5      -5.7805      2.00000
      6      -5.7749      2.00000
      7      -5.6385      2.00000
      8      -5.6304      2.00000
      9      -5.4717      2.00000
     10      -5.4278      2.00000
     11      -4.7805      2.00000
     12      -4.6035      2.00000
     13       0.3646      2.00000
     14       0.8650      2.00000
     15       4.1540      2.00000
     16       5.0937      2.00000
     17       7.2154      2.00000
     18       8.0577      2.00000
     19      14.5719      0.00000
     20      14.7053      0.00000
     21      17.0256      0.00000
     22      17.1916      0.00000
     23      17.8208      0.00000
     24      17.8685      0.00000
     25      22.0075      0.00000
     26      22.6858      0.00000
     27      24.6852      0.00000
     28      25.6563      0.00000
     29      28.3592      0.00000
     30      29.2997      0.00000
     31      30.4255      0.00000
     32      31.2468      0.00000

 k-point    98 :       0.1250    0.5000    0.1667
  band No.  band energies     occupation 
      1      -7.7568      2.00000
      2      -7.6013      2.00000
      3      -5.9132      2.00000
      4      -5.8499      2.00000
      5      -5.8206      2.00000
      6      -5.7669      2.00000
      7      -5.6465      2.00000
      8      -5.5591      2.00000
      9      -5.4801      2.00000
     10      -5.4109      2.00000
     11      -4.6258      2.00000
     12      -4.2629      2.00000
     13       0.5125      2.00000
     14       1.1165      2.00000
     15       4.1620      2.00000
     16       5.1109      2.00000
     17       6.3776      2.00000
     18       7.3105      2.00000
     19      14.5521      0.00000
     20      15.1424      0.00000
     21      16.0332      0.00000
     22      16.7975      0.00000
     23      17.6894      0.00000
     24      18.1343      0.00000
     25      21.1151      0.00000
     26      23.2356      0.00000
     27      24.4926      0.00000
     28      26.3275      0.00000
     29      28.4149      0.00000
     30      30.0151      0.00000
     31      31.2419      0.00000
     32      31.8033      0.00000

 k-point    99 :       0.2500    0.5000    0.1667
  band No.  band energies     occupation 
      1      -7.8592      2.00000
      2      -7.6955      2.00000
      3      -5.9563      2.00000
      4      -5.9068      2.00000
      5      -5.7540      2.00000
      6      -5.6644      2.00000
      7      -5.6144      2.00000
      8      -5.5161      2.00000
      9      -5.4500      2.00000
     10      -5.3867      2.00000
     11      -4.1903      2.00000
     12      -3.4941      2.00000
     13       0.9835      2.00000
     14       1.6706      2.00000
     15       3.8877      2.00000
     16       4.3656      2.00000
     17       5.6810      2.00000
     18       6.2486      2.00000
     19      12.7008      0.00000
     20      13.5090      0.00000
     21      15.2203      0.00000
     22      16.6091      0.00000
     23      18.3051      0.00000
     24      19.4049      0.00000
     25      21.4914      0.00000
     26      22.6942      0.00000
     27      24.1825      0.00000
     28      26.6170      0.00000
     29      29.0557      0.00000
     30      30.5547      0.00000
     31      31.0981      0.00000
     32      33.5462      0.00000

 k-point   100 :       0.3750    0.5000    0.1667
  band No.  band energies     occupation 
      1      -7.9587      2.00000
      2      -7.7865      2.00000
      3      -5.9608      2.00000
      4      -5.9503      2.00000
      5      -5.7248      2.00000
      6      -5.6414      2.00000
      7      -5.5374      2.00000
      8      -5.4924      2.00000
      9      -5.3368      2.00000
     10      -5.3257      2.00000
     11      -3.5692      2.00000
     12      -2.6913      2.00000
     13       1.4046      2.00000
     14       1.6788      2.00000
     15       3.4639      2.00000
     16       4.0677      2.00000
     17       4.7799      2.00000
     18       6.4312      2.00000
     19      10.5627      0.00000
     20      11.5063      0.00000
     21      14.3622      0.00000
     22      16.4985      0.00000
     23      18.9081      0.00000
     24      20.7320      0.00000
     25      21.5313      0.00000
     26      22.3891      0.00000
     27      24.2481      0.00000
     28      27.8680      0.00000
     29      29.2656      0.00000
     30      29.8694      0.00000
     31      31.5889      0.00000
     32      32.6737      0.00000

 k-point   101 :       0.5000    0.5000    0.1667
  band No.  band energies     occupation 
      1      -7.9975      2.00000
      2      -7.8238      2.00000
      3      -5.9798      2.00000
      4      -5.9477      2.00000
      5      -5.7056      2.00000
      6      -5.6494      2.00000
      7      -5.5220      2.00000
      8      -5.4845      2.00000
      9      -5.2843      2.00000
     10      -5.2722      2.00000
     11      -3.1634      2.00000
     12      -2.3610      2.00000
     13       0.9383      2.00000
     14       1.8611      2.00000
     15       3.4979      2.00000
     16       4.3867      2.00000
     17       4.4354      2.00000
     18       6.3619      2.00000
     19       9.7047      0.00000
     20      10.6924      0.00000
     21      13.9872      0.00000
     22      16.3332      0.00000
     23      19.3136      0.00000
     24      20.8169      0.00000
     25      21.7686      0.00000
     26      21.9160      0.00000
     27      24.7666      0.00000
     28      28.6239      0.00000
     29      29.3098      0.00000
     30      29.5682      0.00000
     31      31.7993      0.00000
     32      32.3581      0.00000

 k-point   102 :      -0.3750    0.5000    0.1667
  band No.  band energies     occupation 
      1      -7.9587      2.00000
      2      -7.7865      2.00000
      3      -5.9608      2.00000
      4      -5.9503      2.00000
      5      -5.7248      2.00000
      6      -5.6414      2.00000
      7      -5.5374      2.00000
      8      -5.4924      2.00000
      9      -5.3368      2.00000
     10      -5.3257      2.00000
     11      -3.5692      2.00000
     12      -2.6913      2.00000
     13       1.4046      2.00000
     14       1.6789      2.00000
     15       3.4639      2.00000
     16       4.0677      2.00000
     17       4.7798      2.00000
     18       6.4312      2.00000
     19      10.5627      0.00000
     20      11.5063      0.00000
     21      14.3623      0.00000
     22      16.4985      0.00000
     23      18.9082      0.00000
     24      20.7320      0.00000
     25      21.5312      0.00000
     26      22.3891      0.00000
     27      24.2481      0.00000
     28      27.8679      0.00000
     29      29.2656      0.00000
     30      29.8691      0.00000
     31      31.5889      0.00000
     32      32.6737      0.00000

 k-point   103 :      -0.2500    0.5000    0.1667
  band No.  band energies     occupation 
      1      -7.8592      2.00000
      2      -7.6955      2.00000
      3      -5.9563      2.00000
      4      -5.9068      2.00000
      5      -5.7540      2.00000
      6      -5.6644      2.00000
      7      -5.6144      2.00000
      8      -5.5161      2.00000
      9      -5.4501      2.00000
     10      -5.3866      2.00000
     11      -4.1903      2.00000
     12      -3.4940      2.00000
     13       0.9836      2.00000
     14       1.6706      2.00000
     15       3.8877      2.00000
     16       4.3656      2.00000
     17       5.6810      2.00000
     18       6.2486      2.00000
     19      12.7007      0.00000
     20      13.5091      0.00000
     21      15.2204      0.00000
     22      16.6092      0.00000
     23      18.3051      0.00000
     24      19.4050      0.00000
     25      21.4912      0.00000
     26      22.6943      0.00000
     27      24.1827      0.00000
     28      26.6169      0.00000
     29      29.0557      0.00000
     30      30.5545      0.00000
     31      31.0979      0.00000
     32      33.5462      0.00000

 k-point   104 :      -0.1250    0.5000    0.1667
  band No.  band energies     occupation 
      1      -7.7568      2.00000
      2      -7.6013      2.00000
      3      -5.9132      2.00000
      4      -5.8499      2.00000
      5      -5.8205      2.00000
      6      -5.7669      2.00000
      7      -5.6465      2.00000
      8      -5.5591      2.00000
      9      -5.4801      2.00000
     10      -5.4109      2.00000
     11      -4.6258      2.00000
     12      -4.2629      2.00000
     13       0.5126      2.00000
     14       1.1165      2.00000
     15       4.1620      2.00000
     16       5.1110      2.00000
     17       6.3776      2.00000
     18       7.3105      2.00000
     19      14.5519      0.00000
     20      15.1426      0.00000
     21      16.0334      0.00000
     22      16.7976      0.00000
     23      17.6893      0.00000
     24      18.1343      0.00000
     25      21.1149      0.00000
     26      23.2357      0.00000
     27      24.4928      0.00000
     28      26.3276      0.00000
     29      28.4148      0.00000
     30      30.0152      0.00000
     31      31.2418      0.00000
     32      31.8033      0.00000

 k-point   105 :      -0.0000   -0.3750    0.1667
  band No.  band energies     occupation 
      1      -8.1050      2.00000
      2      -7.6280      2.00000
      3      -5.9404      2.00000
      4      -5.8539      2.00000
      5      -5.8031      2.00000
      6      -5.7378      2.00000
      7      -5.6518      2.00000
      8      -5.6144      2.00000
      9      -5.5081      2.00000
     10      -5.4308      2.00000
     11      -5.2764      2.00000
     12      -4.0639      2.00000
     13       0.4341      2.00000
     14       1.9513      2.00000
     15       3.2640      2.00000
     16       6.0813      2.00000
     17       7.0864      2.00000
     18       8.0392      2.00000
     19      13.9919      0.00000
     20      15.2535      0.00000
     21      16.2784      0.00000
     22      17.2705      0.00000
     23      17.9745      0.00000
     24      18.4044      0.00000
     25      22.3731      0.00000
     26      23.2087      0.00000
     27      23.6832      0.00000
     28      26.7020      0.00000
     29      27.8448      0.00000
     30      28.9191      0.00000
     31      30.2767      0.00000
     32      30.9282      0.00000

 k-point   106 :       0.1250   -0.3750    0.1667
  band No.  band energies     occupation 
      1      -8.2277      2.00000
      2      -7.7123      2.00000
      3      -5.9337      2.00000
      4      -5.8579      2.00000
      5      -5.8398      2.00000
      6      -5.7452      2.00000
      7      -5.6509      2.00000
      8      -5.5576      2.00000
      9      -5.5141      2.00000
     10      -5.4196      2.00000
     11      -5.1449      2.00000
     12      -3.7168      2.00000
     13       0.7658      2.00000
     14       2.4550      2.00000
     15       3.1666      2.00000
     16       6.1056      2.00000
     17       6.8497      2.00000
     18       7.3392      2.00000
     19      14.1201      0.00000
     20      14.5941      0.00000
     21      15.6360      0.00000
     22      16.6612      0.00000
     23      17.8053      0.00000
     24      18.1239      0.00000
     25      21.9166      0.00000
     26      22.3206      0.00000
     27      25.2025      0.00000
     28      25.9601      0.00000
     29      27.1537      0.00000
     30      29.5360      0.00000
     31      30.8380      0.00000
     32      32.2968      0.00000

 k-point   107 :       0.2500   -0.3750    0.1667
  band No.  band energies     occupation 
      1      -8.2131      2.00000
      2      -7.7846      2.00000
      3      -5.9232      2.00000
      4      -5.8934      2.00000
      5      -5.7600      2.00000
      6      -5.6750      2.00000
      7      -5.6306      2.00000
      8      -5.5356      2.00000
      9      -5.4706      2.00000
     10      -5.3916      2.00000
     11      -4.8616      2.00000
     12      -3.1785      2.00000
     13       1.5328      2.00000
     14       2.9315      2.00000
     15       3.2152      2.00000
     16       5.0456      2.00000
     17       5.5940      2.00000
     18       6.8986      2.00000
     19      12.1601      0.00000
     20      12.8637      0.00000
     21      15.8367      0.00000
     22      16.6873      0.00000
     23      17.9068      0.00000
     24      19.6454      0.00000
     25      21.3474      0.00000
     26      21.7969      0.00000
     27      24.3063      0.00000
     28      26.3258      0.00000
     29      27.7797      0.00000
     30      30.3045      0.00000
     31      31.5323      0.00000
     32      33.2729      0.00000

 k-point   108 :       0.3750   -0.3750    0.1667
  band No.  band energies     occupation 
      1      -8.1072      2.00000
      2      -7.8114      2.00000
      3      -5.9455      2.00000
      4      -5.9211      2.00000
      5      -5.7384      2.00000
      6      -5.6519      2.00000
      7      -5.5528      2.00000
      8      -5.5073      2.00000
      9      -5.3834      2.00000
     10      -5.3322      2.00000
     11      -4.2953      2.00000
     12      -2.6696      2.00000
     13       2.2514      2.00000
     14       2.2817      2.00000
     15       2.8705      2.00000
     16       4.7640      2.00000
     17       4.7903      2.00000
     18       6.6271      2.00000
     19      10.5449      0.00000
     20      11.4960      0.00000
     21      15.0716      0.00000
     22      16.7511      0.00000
     23      18.0672      0.00000
     24      20.9469      0.00000
     25      21.4614      0.00000
     26      22.0260      0.00000
     27      23.8192      0.00000
     28      27.5518      0.00000
     29      28.4654      0.00000
     30      30.4169      0.00000
     31      31.0823      0.00000
     32      32.7621      0.00000

 k-point   109 :       0.5000   -0.3750    0.1667
  band No.  band energies     occupation 
      1      -7.9587      2.00000
      2      -7.7865      2.00000
      3      -5.9608      2.00000
      4      -5.9503      2.00000
      5      -5.7248      2.00000
      6      -5.6414      2.00000
      7      -5.5374      2.00000
      8      -5.4924      2.00000
      9      -5.3368      2.00000
     10      -5.3257      2.00000
     11      -3.5692      2.00000
     12      -2.6913      2.00000
     13       1.4046      2.00000
     14       1.6788      2.00000
     15       3.4639      2.00000
     16       4.0677      2.00000
     17       4.7799      2.00000
     18       6.4312      2.00000
     19      10.5627      0.00000
     20      11.5063      0.00000
     21      14.3622      0.00000
     22      16.4985      0.00000
     23      18.9081      0.00000
     24      20.7320      0.00000
     25      21.5313      0.00000
     26      22.3891      0.00000
     27      24.2481      0.00000
     28      27.8680      0.00000
     29      29.2656      0.00000
     30      29.8694      0.00000
     31      31.5889      0.00000
     32      32.6737      0.00000

 k-point   110 :      -0.3750   -0.3750    0.1667
  band No.  band energies     occupation 
      1      -7.7948      2.00000
      2      -7.7385      2.00000
      3      -5.9688      2.00000
      4      -5.9195      2.00000
      5      -5.7533      2.00000
      6      -5.6172      2.00000
      7      -5.5431      2.00000
      8      -5.5019      2.00000
      9      -5.4055      2.00000
     10      -5.3814      2.00000
     11      -3.5486      2.00000
     12      -3.3028      2.00000
     13       1.4983      2.00000
     14       1.8612      2.00000
     15       2.4204      2.00000
     16       4.3177      2.00000
     17       5.1312      2.00000
     18       5.8051      2.00000
     19      12.1971      0.00000
     20      12.9064      0.00000
     21      14.3852      0.00000
     22      16.7642      0.00000
     23      18.8242      0.00000
     24      19.7403      0.00000
     25      22.4155      0.00000
     26      22.7285      0.00000
     27      24.1242      0.00000
     28      27.0749      0.00000
     29      29.6701      0.00000
     30      30.1636      0.00000
     31      30.6053      0.00000
     32      33.5835      0.00000

 k-point   111 :      -0.2500   -0.3750    0.1667
  band No.  band energies     occupation 
      1      -7.7487      2.00000
      2      -7.6517      2.00000
      3      -5.9420      2.00000
      4      -5.8507      2.00000
      5      -5.7681      2.00000
      6      -5.6541      2.00000
      7      -5.6051      2.00000
      8      -5.5406      2.00000
      9      -5.4865      2.00000
     10      -5.4343      2.00000
     11      -4.5391      2.00000
     12      -3.6635      2.00000
     13       1.1612      2.00000
     14       1.8689      2.00000
     15       3.0926      2.00000
     16       4.9417      2.00000
     17       5.2586      2.00000
     18       5.7734      2.00000
     19      14.1778      0.00000
     20      14.8591      0.00000
     21      15.3368      0.00000
     22      17.0788      0.00000
     23      18.2363      0.00000
     24      19.0449      0.00000
     25      21.4756      0.00000
     26      23.0010      0.00000
     27      24.0504      0.00000
     28      27.1162      0.00000
     29      29.1120      0.00000
     30      30.2590      0.00000
     31      31.1309      0.00000
     32      32.8415      0.00000

 k-point   112 :      -0.1250   -0.3750    0.1667
  band No.  band energies     occupation 
      1      -7.8934      2.00000
      2      -7.5910      2.00000
      3      -5.9055      2.00000
      4      -5.8008      2.00000
      5      -5.7682      2.00000
      6      -5.7398      2.00000
      7      -5.6791      2.00000
      8      -5.5813      2.00000
      9      -5.5022      2.00000
     10      -5.4404      2.00000
     11      -5.1608      2.00000
     12      -4.0383      2.00000
     13       0.5725      2.00000
     14       1.7744      2.00000
     15       3.6363      2.00000
     16       5.6115      2.00000
     17       5.8381      2.00000
     18       7.1475      2.00000
     19      14.4459      0.00000
     20      16.0501      0.00000
     21      16.4006      0.00000
     22      16.9115      0.00000
     23      18.2437      0.00000
     24      19.2099      0.00000
     25      20.7083      0.00000
     26      23.1253      0.00000
     27      23.5773      0.00000
     28      27.6444      0.00000
     29      28.4760      0.00000
     30      29.8470      0.00000
     31      30.6451      0.00000
     32      31.7519      0.00000

 k-point   113 :      -0.0000   -0.2500    0.1667
  band No.  band energies     occupation 
      1      -8.8413      2.00000
      2      -7.8953      2.00000
      3      -5.9644      2.00000
      4      -5.8844      2.00000
      5      -5.7891      2.00000
      6      -5.6669      2.00000
      7      -5.6578      2.00000
      8      -5.6173      2.00000
      9      -5.5700      2.00000
     10      -5.4950      2.00000
     11      -5.4092      2.00000
     12      -3.9857      2.00000
     13       1.1164      2.00000
     14       2.9319      2.00000
     15       3.8486      2.00000
     16       6.7507      2.00000
     17       7.1567      2.00000
     18       7.9707      2.00000
     19      13.3064      0.00000
     20      14.0906      0.00000
     21      16.9401      0.00000
     22      17.6268      0.00000
     23      18.5015      0.00000
     24      19.3008      0.00000
     25      22.2354      0.00000
     26      22.9784      0.00000
     27      23.8047      0.00000
     28      25.8950      0.00000
     29      27.2193      0.00000
     30      29.1107      0.00000
     31      29.9464      0.00000
     32      30.6241      0.00000

 k-point   114 :       0.1250   -0.2500    0.1667
  band No.  band energies     occupation 
      1      -8.8748      2.00000
      2      -7.9503      2.00000
      3      -5.9266      2.00000
      4      -5.8505      2.00000
      5      -5.7749      2.00000
      6      -5.7271      2.00000
      7      -5.6655      2.00000
      8      -5.6023      2.00000
      9      -5.5793      2.00000
     10      -5.4542      2.00000
     11      -5.3726      2.00000
     12      -3.7994      2.00000
     13       1.3792      2.00000
     14       3.2417      2.00000
     15       4.4364      2.00000
     16       6.3022      2.00000
     17       6.8317      2.00000
     18       7.5242      2.00000
     19      13.4393      0.00000
     20      13.6717      0.00000
     21      16.6847      0.00000
     22      17.4533      0.00000
     23      18.4278      0.00000
     24      18.9930      0.00000
     25      20.8525      0.00000
     26      21.3449      0.00000
     27      24.4295      0.00000
     28      25.7755      0.00000
     29      27.1795      0.00000
     30      28.5221      0.00000
     31      30.0812      0.00000
     32      32.7218      0.00000

 k-point   115 :       0.2500   -0.2500    0.1667
  band No.  band energies     occupation 
      1      -8.6173      2.00000
      2      -7.8961      2.00000
      3      -5.8733      2.00000
      4      -5.8439      2.00000
      5      -5.7933      2.00000
      6      -5.6693      2.00000
      7      -5.6494      2.00000
      8      -5.6103      2.00000
      9      -5.5661      2.00000
     10      -5.3841      2.00000
     11      -5.2857      2.00000
     12      -3.4681      2.00000
     13       1.8739      2.00000
     14       3.3576      2.00000
     15       4.4898      2.00000
     16       5.1593      2.00000
     17       5.5961      2.00000
     18       7.2520      2.00000
     19      12.8545      0.00000
     20      13.2460      0.00000
     21      16.4533      0.00000
     22      17.1682      0.00000
     23      17.9525      0.00000
     24      19.8433      0.00000
     25      20.3587      0.00000
     26      20.7269      0.00000
     27      25.1713      0.00000
     28      25.5495      0.00000
     29      26.5680      0.00000
     30      29.0735      0.00000
     31      32.4084      0.00000
     32      33.1868      0.00000

 k-point   116 :       0.3750   -0.2500    0.1667
  band No.  band energies     occupation 
      1      -8.2131      2.00000
      2      -7.7846      2.00000
      3      -5.9232      2.00000
      4      -5.8934      2.00000
      5      -5.7600      2.00000
      6      -5.6750      2.00000
      7      -5.6306      2.00000
      8      -5.5356      2.00000
      9      -5.4706      2.00000
     10      -5.3916      2.00000
     11      -4.8616      2.00000
     12      -3.1785      2.00000
     13       1.5328      2.00000
     14       2.9315      2.00000
     15       3.2152      2.00000
     16       5.0456      2.00000
     17       5.5940      2.00000
     18       6.8986      2.00000
     19      12.1601      0.00000
     20      12.8637      0.00000
     21      15.8367      0.00000
     22      16.6873      0.00000
     23      17.9068      0.00000
     24      19.6454      0.00000
     25      21.3474      0.00000
     26      21.7969      0.00000
     27      24.3063      0.00000
     28      26.3258      0.00000
     29      27.7797      0.00000
     30      30.3045      0.00000
     31      31.5323      0.00000
     32      33.2729      0.00000

 k-point   117 :       0.5000   -0.2500    0.1667
  band No.  band energies     occupation 
      1      -7.8592      2.00000
      2      -7.6955      2.00000
      3      -5.9563      2.00000
      4      -5.9068      2.00000
      5      -5.7540      2.00000
      6      -5.6644      2.00000
      7      -5.6144      2.00000
      8      -5.5161      2.00000
      9      -5.4500      2.00000
     10      -5.3867      2.00000
     11      -4.1903      2.00000
     12      -3.4941      2.00000
     13       0.9835      2.00000
     14       1.6706      2.00000
     15       3.8877      2.00000
     16       4.3656      2.00000
     17       5.6810      2.00000
     18       6.2486      2.00000
     19      12.7008      0.00000
     20      13.5090      0.00000
     21      15.2203      0.00000
     22      16.6091      0.00000
     23      18.3051      0.00000
     24      19.4049      0.00000
     25      21.4914      0.00000
     26      22.6942      0.00000
     27      24.1825      0.00000
     28      26.6170      0.00000
     29      29.0557      0.00000
     30      30.5547      0.00000
     31      31.0981      0.00000
     32      33.5462      0.00000

 k-point   118 :      -0.3750   -0.2500    0.1667
  band No.  band energies     occupation 
      1      -7.7487      2.00000
      2      -7.6517      2.00000
      3      -5.9420      2.00000
      4      -5.8507      2.00000
      5      -5.7681      2.00000
      6      -5.6541      2.00000
      7      -5.6051      2.00000
      8      -5.5405      2.00000
      9      -5.4865      2.00000
     10      -5.4343      2.00000
     11      -4.5391      2.00000
     12      -3.6635      2.00000
     13       1.1612      2.00000
     14       1.8689      2.00000
     15       3.0926      2.00000
     16       4.9417      2.00000
     17       5.2587      2.00000
     18       5.7734      2.00000
     19      14.1779      0.00000
     20      14.8590      0.00000
     21      15.3367      0.00000
     22      17.0787      0.00000
     23      18.2364      0.00000
     24      19.0449      0.00000
     25      21.4757      0.00000
     26      23.0009      0.00000
     27      24.0503      0.00000
     28      27.1161      0.00000
     29      29.1120      0.00000
     30      30.2590      0.00000
     31      31.1311      0.00000
     32      32.8415      0.00000

 k-point   119 :      -0.2500   -0.2500    0.1667
  band No.  band energies     occupation 
      1      -8.0396      2.00000
      2      -7.6370      2.00000
      3      -5.8873      2.00000
      4      -5.7745      2.00000
      5      -5.7567      2.00000
      6      -5.6686      2.00000
      7      -5.6279      2.00000
      8      -5.6228      2.00000
      9      -5.5399      2.00000
     10      -5.4937      2.00000
     11      -5.2868      2.00000
     12      -3.7628      2.00000
     13       1.3457      2.00000
     14       2.8316      2.00000
     15       3.4076      2.00000
     16       3.9247      2.00000
     17       5.8258      2.00000
     18       6.3437      2.00000
     19      15.0195      0.00000
     20      15.6556      0.00000
     21      16.3304      0.00000
     22      17.5804      0.00000
     23      18.2701      0.00000
     24      18.9220      0.00000
     25      22.1392      0.00000
     26      22.3980      0.00000
     27      23.3322      0.00000
     28      27.4244      0.00000
     29      29.3781      0.00000
     30      29.8922      0.00000
     31      31.3738      0.00000
     32      32.9427      0.00000

 k-point   120 :      -0.1250   -0.2500    0.1667
  band No.  band energies     occupation 
      1      -8.5058      2.00000
      2      -7.7545      2.00000
      3      -5.8937      2.00000
      4      -5.8323      2.00000
      5      -5.7844      2.00000
      6      -5.6887      2.00000
      7      -5.6730      2.00000
      8      -5.6053      2.00000
      9      -5.5796      2.00000
     10      -5.5032      2.00000
     11      -5.4460      2.00000
     12      -3.9679      2.00000
     13       1.1467      2.00000
     14       3.1182      2.00000
     15       3.4106      2.00000
     16       5.2667      2.00000
     17       6.7944      2.00000
     18       7.1228      2.00000
     19      14.1472      0.00000
     20      15.5082      0.00000
     21      16.9847      0.00000
     22      17.6030      0.00000
     23      18.3525      0.00000
     24      19.2931      0.00000
     25      21.8544      0.00000
     26      23.6161      0.00000
     27      23.8759      0.00000
     28      26.5653      0.00000
     29      27.7417      0.00000
     30      29.0704      0.00000
     31      31.2301      0.00000
     32      31.9343      0.00000

 k-point   121 :      -0.0000   -0.1250    0.1667
  band No.  band energies     occupation 
      1      -9.4337      2.00000
      2      -8.1768      2.00000
      3      -5.9628      2.00000
      4      -5.8958      2.00000
      5      -5.8357      2.00000
      6      -5.6660      2.00000
      7      -5.6483      2.00000
      8      -5.5894      2.00000
      9      -5.5552      2.00000
     10      -5.4787      2.00000
     11      -5.4050      2.00000
     12      -4.1480      2.00000
     13       0.8915      2.00000
     14       4.3983      2.00000
     15       5.7930      2.00000
     16       6.6897      2.00000
     17       7.5166      2.00000
     18       8.0014      2.00000
     19      12.2867      0.00000
     20      12.4531      0.00000
     21      17.6731      0.00000
     22      18.5304      0.00000
     23      18.9819      0.00000
     24      20.1507      0.00000
     25      22.1595      0.00000
     26      22.6884      0.00000
     27      23.3278      0.00000
     28      24.9624      0.00000
     29      27.1470      0.00000
     30      28.3032      0.00000
     31      29.7676      0.00000
     32      31.3080      0.00000

 k-point   122 :       0.1250   -0.1250    0.1667
  band No.  band energies     occupation 
      1      -9.3382      2.00000
      2      -8.1481      2.00000
      3      -5.9132      2.00000
      4      -5.8902      2.00000
      5      -5.7998      2.00000
      6      -5.6983      2.00000
      7      -5.6537      2.00000
      8      -5.6223      2.00000
      9      -5.5773      2.00000
     10      -5.4793      2.00000
     11      -5.3833      2.00000
     12      -4.0341      2.00000
     13       1.0399      2.00000
     14       4.5912      2.00000
     15       6.1098      2.00000
     16       6.4044      2.00000
     17       6.5115      2.00000
     18       7.8298      2.00000
     19      12.6310      0.00000
     20      12.7840      0.00000
     21      18.0046      0.00000
     22      18.3429      0.00000
     23      18.9201      0.00000
     24      20.1343      0.00000
     25      20.4333      0.00000
     26      20.9635      0.00000
     27      23.0939      0.00000
     28      25.2448      0.00000
     29      27.7295      0.00000
     30      28.9781      0.00000
     31      29.4789      0.00000
     32      30.7356      0.00000

 k-point   123 :       0.2500   -0.1250    0.1667
  band No.  band energies     occupation 
      1      -8.8748      2.00000
      2      -7.9503      2.00000
      3      -5.9266      2.00000
      4      -5.8505      2.00000
      5      -5.7749      2.00000
      6      -5.7271      2.00000
      7      -5.6655      2.00000
      8      -5.6023      2.00000
      9      -5.5793      2.00000
     10      -5.4542      2.00000
     11      -5.3726      2.00000
     12      -3.7994      2.00000
     13       1.3792      2.00000
     14       3.2417      2.00000
     15       4.4364      2.00000
     16       6.3022      2.00000
     17       6.8317      2.00000
     18       7.5242      2.00000
     19      13.4393      0.00000
     20      13.6717      0.00000
     21      16.6847      0.00000
     22      17.4533      0.00000
     23      18.4278      0.00000
     24      18.9930      0.00000
     25      20.8525      0.00000
     26      21.3449      0.00000
     27      24.4295      0.00000
     28      25.7755      0.00000
     29      27.1795      0.00000
     30      28.5221      0.00000
     31      30.0812      0.00000
     32      32.7218      0.00000

 k-point   124 :       0.3750   -0.1250    0.1667
  band No.  band energies     occupation 
      1      -8.2277      2.00000
      2      -7.7123      2.00000
      3      -5.9337      2.00000
      4      -5.8579      2.00000
      5      -5.8398      2.00000
      6      -5.7452      2.00000
      7      -5.6509      2.00000
      8      -5.5576      2.00000
      9      -5.5141      2.00000
     10      -5.4196      2.00000
     11      -5.1449      2.00000
     12      -3.7168      2.00000
     13       0.7658      2.00000
     14       2.4550      2.00000
     15       3.1666      2.00000
     16       6.1056      2.00000
     17       6.8497      2.00000
     18       7.3392      2.00000
     19      14.1201      0.00000
     20      14.5941      0.00000
     21      15.6360      0.00000
     22      16.6612      0.00000
     23      17.8053      0.00000
     24      18.1239      0.00000
     25      21.9166      0.00000
     26      22.3206      0.00000
     27      25.2025      0.00000
     28      25.9601      0.00000
     29      27.1537      0.00000
     30      29.5360      0.00000
     31      30.8380      0.00000
     32      32.2968      0.00000

 k-point   125 :       0.5000   -0.1250    0.1667
  band No.  band energies     occupation 
      1      -7.7568      2.00000
      2      -7.6013      2.00000
      3      -5.9132      2.00000
      4      -5.8499      2.00000
      5      -5.8206      2.00000
      6      -5.7669      2.00000
      7      -5.6465      2.00000
      8      -5.5591      2.00000
      9      -5.4801      2.00000
     10      -5.4109      2.00000
     11      -4.6258      2.00000
     12      -4.2629      2.00000
     13       0.5125      2.00000
     14       1.1165      2.00000
     15       4.1620      2.00000
     16       5.1109      2.00000
     17       6.3776      2.00000
     18       7.3105      2.00000
     19      14.5521      0.00000
     20      15.1424      0.00000
     21      16.0332      0.00000
     22      16.7975      0.00000
     23      17.6894      0.00000
     24      18.1343      0.00000
     25      21.1151      0.00000
     26      23.2356      0.00000
     27      24.4926      0.00000
     28      26.3275      0.00000
     29      28.4149      0.00000
     30      30.0151      0.00000
     31      31.2419      0.00000
     32      31.8033      0.00000

 k-point   126 :      -0.3750   -0.1250    0.1667
  band No.  band energies     occupation 
      1      -7.8934      2.00000
      2      -7.5910      2.00000
      3      -5.9054      2.00000
      4      -5.8008      2.00000
      5      -5.7682      2.00000
      6      -5.7399      2.00000
      7      -5.6791      2.00000
      8      -5.5813      2.00000
      9      -5.5022      2.00000
     10      -5.4404      2.00000
     11      -5.1608      2.00000
     12      -4.0383      2.00000
     13       0.5726      2.00000
     14       1.7744      2.00000
     15       3.6363      2.00000
     16       5.6115      2.00000
     17       5.8382      2.00000
     18       7.1475      2.00000
     19      14.4460      0.00000
     20      16.0500      0.00000
     21      16.4005      0.00000
     22      16.9115      0.00000
     23      18.2439      0.00000
     24      19.2099      0.00000
     25      20.7084      0.00000
     26      23.1252      0.00000
     27      23.5771      0.00000
     28      27.6444      0.00000
     29      28.4759      0.00000
     30      29.8469      0.00000
     31      30.6451      0.00000
     32      31.7521      0.00000

 k-point   127 :      -0.2500   -0.1250    0.1667
  band No.  band energies     occupation 
      1      -8.5058      2.00000
      2      -7.7545      2.00000
      3      -5.8937      2.00000
      4      -5.8323      2.00000
      5      -5.7844      2.00000
      6      -5.6887      2.00000
      7      -5.6730      2.00000
      8      -5.6053      2.00000
      9      -5.5796      2.00000
     10      -5.5032      2.00000
     11      -5.4460      2.00000
     12      -3.9679      2.00000
     13       1.1468      2.00000
     14       3.1182      2.00000
     15       3.4105      2.00000
     16       5.2667      2.00000
     17       6.7945      2.00000
     18       7.1227      2.00000
     19      14.1473      0.00000
     20      15.5082      0.00000
     21      16.9846      0.00000
     22      17.6029      0.00000
     23      18.3526      0.00000
     24      19.2932      0.00000
     25      21.8544      0.00000
     26      23.6160      0.00000
     27      23.8759      0.00000
     28      26.5653      0.00000
     29      27.7417      0.00000
     30      29.0705      0.00000
     31      31.2298      0.00000
     32      31.9345      0.00000

 k-point   128 :      -0.1250   -0.1250    0.1667
  band No.  band energies     occupation 
      1      -9.1240      2.00000
      2      -8.0117      2.00000
      3      -5.9492      2.00000
      4      -5.8536      2.00000
      5      -5.8527      2.00000
      6      -5.6743      2.00000
      7      -5.6410      2.00000
      8      -5.5888      2.00000
      9      -5.5600      2.00000
     10      -5.5010      2.00000
     11      -5.4579      2.00000
     12      -4.0926      2.00000
     13       1.0750      2.00000
     14       3.8474      2.00000
     15       4.8618      2.00000
     16       5.7545      2.00000
     17       7.4373      2.00000
     18       7.4848      2.00000
     19      13.1624      0.00000
     20      13.8991      0.00000
     21      17.7940      0.00000
     22      18.1141      0.00000
     23      18.9065      0.00000
     24      18.9515      0.00000
     25      22.4447      0.00000
     26      23.5240      0.00000
     27      25.2403      0.00000
     28      25.2689      0.00000
     29      27.9112      0.00000
     30      28.0578      0.00000
     31      29.3524      0.00000
     32      31.6697      0.00000

 k-point   129 :      -0.0000    0.0000    0.3333
  band No.  band energies     occupation 
      1      -9.3170      2.00000
      2      -8.4984      2.00000
      3      -5.9505      2.00000
      4      -5.8889      2.00000
      5      -5.8777      2.00000
      6      -5.6629      2.00000
      7      -5.5864      2.00000
      8      -5.5824      2.00000
      9      -5.5598      2.00000
     10      -5.4381      2.00000
     11      -5.4339      2.00000
     12      -5.0219      2.00000
     13       2.3434      2.00000
     14       5.5219      2.00000
     15       5.8029      2.00000
     16       6.5231      2.00000
     17       7.2871      2.00000
     18       7.9462      2.00000
     19      11.9791      0.00000
     20      12.5481      0.00000
     21      17.5680      0.00000
     22      18.0145      0.00000
     23      18.0382      0.00000
     24      19.9232      0.00000
     25      21.9837      0.00000
     26      22.1873      0.00000
     27      23.5412      0.00000
     28      26.1236      0.00000
     29      28.4978      0.00000
     30      28.8185      0.00000
     31      29.1208      0.00000
     32      31.3831      0.00000

 k-point   130 :       0.1250    0.0000    0.3333
  band No.  band energies     occupation 
      1      -9.1132      2.00000
      2      -8.3546      2.00000
      3      -5.9508      2.00000
      4      -5.8940      2.00000
      5      -5.8495      2.00000
      6      -5.6700      2.00000
      7      -5.6214      2.00000
      8      -5.5944      2.00000
      9      -5.5495      2.00000
     10      -5.4700      2.00000
     11      -5.4347      2.00000
     12      -4.9024      2.00000
     13       2.3249      2.00000
     14       4.8648      2.00000
     15       4.9633      2.00000
     16       6.7147      2.00000
     17       7.0581      2.00000
     18       7.7377      2.00000
     19      12.8847      0.00000
     20      13.0956      0.00000
     21      17.2047      0.00000
     22      17.5164      0.00000
     23      18.2743      0.00000
     24      19.3035      0.00000
     25      22.3130      0.00000
     26      22.5473      0.00000
     27      23.9183      0.00000
     28      25.9192      0.00000
     29      26.7092      0.00000
     30      29.8972      0.00000
     31      30.5288      0.00000
     32      31.9186      0.00000

 k-point   131 :       0.2500    0.0000    0.3333
  band No.  band energies     occupation 
      1      -8.5654      2.00000
      2      -7.9968      2.00000
      3      -5.9620      2.00000
      4      -5.9051      2.00000
      5      -5.8166      2.00000
      6      -5.7160      2.00000
      7      -5.6370      2.00000
      8      -5.5992      2.00000
      9      -5.5227      2.00000
     10      -5.4514      2.00000
     11      -5.4120      2.00000
     12      -4.6736      2.00000
     13       1.6097      2.00000
     14       3.0394      2.00000
     15       4.2790      2.00000
     16       6.8102      2.00000
     17       7.1211      2.00000
     18       7.7185      2.00000
     19      13.4582      0.00000
     20      14.4000      0.00000
     21      16.1291      0.00000
     22      17.1012      0.00000
     23      18.3307      0.00000
     24      18.8614      0.00000
     25      22.1984      0.00000
     26      22.7158      0.00000
     27      24.4648      0.00000
     28      26.5667      0.00000
     29      27.0644      0.00000
     30      28.9606      0.00000
     31      30.4234      0.00000
     32      32.1393      0.00000

 k-point   132 :       0.3750    0.0000    0.3333
  band No.  band energies     occupation 
      1      -7.9199      2.00000
      2      -7.6407      2.00000
      3      -5.9506      2.00000
      4      -5.9018      2.00000
      5      -5.8243      2.00000
      6      -5.7899      2.00000
      7      -5.6008      2.00000
      8      -5.5631      2.00000
      9      -5.4450      2.00000
     10      -5.4342      2.00000
     11      -5.2233      2.00000
     12      -4.5078      2.00000
     13       0.2560      2.00000
     14       1.1879      2.00000
     15       4.7987      2.00000
     16       6.5663      2.00000
     17       7.3176      2.00000
     18       7.8533      2.00000
     19      13.2268      0.00000
     20      14.3589      0.00000
     21      16.3955      0.00000
     22      17.5886      0.00000
     23      17.8466      0.00000
     24      18.5085      0.00000
     25      22.1200      0.00000
     26      22.4319      0.00000
     27      23.9327      0.00000
     28      26.4067      0.00000
     29      28.4368      0.00000
     30      29.4283      0.00000
     31      30.4934      0.00000
     32      31.2729      0.00000

 k-point   133 :       0.5000    0.0000    0.3333
  band No.  band energies     occupation 
      1      -7.6096      2.00000
      2      -7.5197      2.00000
      3      -5.9425      2.00000
      4      -5.9018      2.00000
      5      -5.8077      2.00000
      6      -5.8020      2.00000
      7      -5.5899      2.00000
      8      -5.5635      2.00000
      9      -5.4251      2.00000
     10      -5.4010      2.00000
     11      -4.8064      2.00000
     12      -4.7006      2.00000
     13      -0.1590      2.00000
     14       0.1785      2.00000
     15       5.4775      2.00000
     16       6.0536      2.00000
     17       7.4384      2.00000
     18       7.8980      2.00000
     19      13.3471      0.00000
     20      13.6333      0.00000
     21      17.2920      0.00000
     22      17.3132      0.00000
     23      18.0706      0.00000
     24      18.2649      0.00000
     25      21.8950      0.00000
     26      22.3842      0.00000
     27      23.9366      0.00000
     28      25.0071      0.00000
     29      28.9261      0.00000
     30      30.3524      0.00000
     31      30.9298      0.00000
     32      31.6922      0.00000

 k-point   134 :      -0.3750   -0.0000    0.3333
  band No.  band energies     occupation 
      1      -7.9199      2.00000
      2      -7.6406      2.00000
      3      -5.9506      2.00000
      4      -5.9018      2.00000
      5      -5.8243      2.00000
      6      -5.7899      2.00000
      7      -5.6008      2.00000
      8      -5.5631      2.00000
      9      -5.4450      2.00000
     10      -5.4342      2.00000
     11      -5.2233      2.00000
     12      -4.5078      2.00000
     13       0.2561      2.00000
     14       1.1879      2.00000
     15       4.7987      2.00000
     16       6.5663      2.00000
     17       7.3176      2.00000
     18       7.8533      2.00000
     19      13.2270      0.00000
     20      14.3587      0.00000
     21      16.3954      0.00000
     22      17.5887      0.00000
     23      17.8467      0.00000
     24      18.5085      0.00000
     25      22.1199      0.00000
     26      22.4319      0.00000
     27      23.9326      0.00000
     28      26.4068      0.00000
     29      28.4368      0.00000
     30      29.4282      0.00000
     31      30.4934      0.00000
     32      31.2733      0.00000

 k-point   135 :      -0.2500   -0.0000    0.3333
  band No.  band energies     occupation 
      1      -8.5655      2.00000
      2      -7.9968      2.00000
      3      -5.9620      2.00000
      4      -5.9051      2.00000
      5      -5.8166      2.00000
      6      -5.7160      2.00000
      7      -5.6369      2.00000
      8      -5.5992      2.00000
      9      -5.5228      2.00000
     10      -5.4514      2.00000
     11      -5.4120      2.00000
     12      -4.6736      2.00000
     13       1.6098      2.00000
     14       3.0394      2.00000
     15       4.2790      2.00000
     16       6.8102      2.00000
     17       7.1211      2.00000
     18       7.7185      2.00000
     19      13.4582      0.00000
     20      14.4000      0.00000
     21      16.1289      0.00000
     22      17.1013      0.00000
     23      18.3308      0.00000
     24      18.8615      0.00000
     25      22.1984      0.00000
     26      22.7157      0.00000
     27      24.4647      0.00000
     28      26.5667      0.00000
     29      27.0644      0.00000
     30      28.9607      0.00000
     31      30.4234      0.00000
     32      32.1397      0.00000

 k-point   136 :      -0.1250    0.0000    0.3333
  band No.  band energies     occupation 
      1      -9.1132      2.00000
      2      -8.3546      2.00000
      3      -5.9508      2.00000
      4      -5.8941      2.00000
      5      -5.8495      2.00000
      6      -5.6700      2.00000
      7      -5.6214      2.00000
      8      -5.5944      2.00000
      9      -5.5495      2.00000
     10      -5.4700      2.00000
     11      -5.4347      2.00000
     12      -4.9024      2.00000
     13       2.3249      2.00000
     14       4.8648      2.00000
     15       4.9632      2.00000
     16       6.7147      2.00000
     17       7.0581      2.00000
     18       7.7377      2.00000
     19      12.8847      0.00000
     20      13.0955      0.00000
     21      17.2047      0.00000
     22      17.5163      0.00000
     23      18.2743      0.00000
     24      19.3035      0.00000
     25      22.3129      0.00000
     26      22.5475      0.00000
     27      23.9184      0.00000
     28      25.9191      0.00000
     29      26.7091      0.00000
     30      29.8972      0.00000
     31      30.5288      0.00000
     32      31.9187      0.00000

 k-point   137 :       0.0000    0.1250    0.3333
  band No.  band energies     occupation 
      1      -9.1132      2.00000
      2      -8.3546      2.00000
      3      -5.9508      2.00000
      4      -5.8941      2.00000
      5      -5.8495      2.00000
      6      -5.6700      2.00000
      7      -5.6214      2.00000
      8      -5.5944      2.00000
      9      -5.5495      2.00000
     10      -5.4700      2.00000
     11      -5.4347      2.00000
     12      -4.9024      2.00000
     13       2.3249      2.00000
     14       4.8648      2.00000
     15       4.9632      2.00000
     16       6.7147      2.00000
     17       7.0581      2.00000
     18       7.7377      2.00000
     19      12.8847      0.00000
     20      13.0955      0.00000
     21      17.2047      0.00000
     22      17.5163      0.00000
     23      18.2743      0.00000
     24      19.3035      0.00000
     25      22.3129      0.00000
     26      22.5475      0.00000
     27      23.9184      0.00000
     28      25.9191      0.00000
     29      26.7091      0.00000
     30      29.8972      0.00000
     31      30.5288      0.00000
     32      31.9187      0.00000

 k-point   138 :       0.1250    0.1250    0.3333
  band No.  band energies     occupation 
      1      -8.8222      2.00000
      2      -8.1510      2.00000
      3      -5.9420      2.00000
      4      -5.8867      2.00000
      5      -5.8482      2.00000
      6      -5.6656      2.00000
      7      -5.6163      2.00000
      8      -5.6136      2.00000
      9      -5.5315      2.00000
     10      -5.5034      2.00000
     11      -5.4600      2.00000
     12      -4.8112      2.00000
     13       2.1046      2.00000
     14       4.0001      2.00000
     15       4.7235      2.00000
     16       6.0759      2.00000
     17       7.0811      2.00000
     18       7.0855      2.00000
     19      13.7725      0.00000
     20      14.2577      0.00000
     21      17.2331      0.00000
     22      17.2947      0.00000
     23      17.9563      0.00000
     24      18.3636      0.00000
     25      23.6932      0.00000
     26      23.9565      0.00000
     27      25.2497      0.00000
     28      25.3479      0.00000
     29      27.1322      0.00000
     30      29.2813      0.00000
     31      29.9469      0.00000
     32      31.0766      0.00000

 k-point   139 :       0.2500    0.1250    0.3333
  band No.  band energies     occupation 
      1      -8.2628      2.00000
      2      -7.8150      2.00000
      3      -5.9035      2.00000
      4      -5.8671      2.00000
      5      -5.7930      2.00000
      6      -5.7099      2.00000
      7      -5.6339      2.00000
      8      -5.5973      2.00000
      9      -5.5768      2.00000
     10      -5.5022      2.00000
     11      -5.3694      2.00000
     12      -4.5925      2.00000
     13       1.3539      2.00000
     14       2.5875      2.00000
     15       4.5352      2.00000
     16       5.6868      2.00000
     17       6.5011      2.00000
     18       7.0954      2.00000
     19      14.1392      0.00000
     20      15.7078      0.00000
     21      16.2769      0.00000
     22      17.4382      0.00000
     23      17.7734      0.00000
     24      18.4324      0.00000
     25      23.1354      0.00000
     26      23.8026      0.00000
     27      24.0159      0.00000
     28      27.2863      0.00000
     29      28.1023      0.00000
     30      28.6691      0.00000
     31      29.0086      0.00000
     32      31.0790      0.00000

 k-point   140 :       0.3750    0.1250    0.3333
  band No.  band energies     occupation 
      1      -7.7495      2.00000
      2      -7.5754      2.00000
      3      -5.9172      2.00000
      4      -5.8588      2.00000
      5      -5.7901      2.00000
      6      -5.7632      2.00000
      7      -5.6536      2.00000
      8      -5.5490      2.00000
      9      -5.4923      2.00000
     10      -5.4337      2.00000
     11      -5.0360      2.00000
     12      -4.3761      2.00000
     13       0.2865      2.00000
     14       1.0311      2.00000
     15       4.8777      2.00000
     16       6.1060      2.00000
     17       6.3570      2.00000
     18       6.9261      2.00000
     19      13.8595      0.00000
     20      14.9501      0.00000
     21      16.4541      0.00000
     22      17.4110      0.00000
     23      17.9492      0.00000
     24      18.7208      0.00000
     25      21.2669      0.00000
     26      23.0145      0.00000
     27      24.1703      0.00000
     28      26.4768      0.00000
     29      28.4705      0.00000
     30      29.7034      0.00000
     31      30.6705      0.00000
     32      31.2174      0.00000

 k-point   141 :       0.5000    0.1250    0.3333
  band No.  band energies     occupation 
      1      -7.6502      2.00000
      2      -7.5614      2.00000
      3      -5.9256      2.00000
      4      -5.8711      2.00000
      5      -5.8473      2.00000
      6      -5.8236      2.00000
      7      -5.6450      2.00000
      8      -5.5379      2.00000
      9      -5.4463      2.00000
     10      -5.3866      2.00000
     11      -4.5878      2.00000
     12      -4.3592      2.00000
     13       0.0371      2.00000
     14       0.4417      2.00000
     15       5.3809      2.00000
     16       5.8601      2.00000
     17       6.7441      2.00000
     18       7.0641      2.00000
     19      13.8732      0.00000
     20      14.0756      0.00000
     21      16.1080      0.00000
     22      16.8167      0.00000
     23      18.0649      0.00000
     24      18.6377      0.00000
     25      20.5236      0.00000
     26      22.2818      0.00000
     27      25.0571      0.00000
     28      26.0523      0.00000
     29      28.8076      0.00000
     30      29.8266      0.00000
     31      31.3198      0.00000
     32      31.9695      0.00000

 k-point   142 :      -0.3750    0.1250    0.3333
  band No.  band energies     occupation 
      1      -8.0367      2.00000
      2      -7.7331      2.00000
      3      -5.9349      2.00000
      4      -5.8869      2.00000
      5      -5.8592      2.00000
      6      -5.8017      2.00000
      7      -5.6545      2.00000
      8      -5.5537      2.00000
      9      -5.4672      2.00000
     10      -5.4191      2.00000
     11      -5.0197      2.00000
     12      -4.2306      2.00000
     13       0.7156      2.00000
     14       1.7418      2.00000
     15       4.6505      2.00000
     16       6.3729      2.00000
     17       6.9302      2.00000
     18       7.2170      2.00000
     19      13.7305      0.00000
     20      14.4703      0.00000
     21      15.1563      0.00000
     22      16.3150      0.00000
     23      18.2800      0.00000
     24      18.7577      0.00000
     25      20.9886      0.00000
     26      21.1874      0.00000
     27      25.8419      0.00000
     28      26.4040      0.00000
     29      27.8815      0.00000
     30      29.4985      0.00000
     31      31.2077      0.00000
     32      31.7226      0.00000

 k-point   143 :      -0.2500    0.1250    0.3333
  band No.  band energies     occupation 
      1      -8.6050      2.00000
      2      -8.0501      2.00000
      3      -5.9202      2.00000
      4      -5.8590      2.00000
      5      -5.8062      2.00000
      6      -5.7424      2.00000
      7      -5.6885      2.00000
      8      -5.6242      2.00000
      9      -5.5495      2.00000
     10      -5.4417      2.00000
     11      -5.2944      2.00000
     12      -4.5163      2.00000
     13       2.1680      2.00000
     14       3.7074      2.00000
     15       4.2310      2.00000
     16       6.3551      2.00000
     17       6.6209      2.00000
     18       7.3510      2.00000
     19      13.7164      0.00000
     20      14.2117      0.00000
     21      15.6048      0.00000
     22      16.5475      0.00000
     23      18.8650      0.00000
     24      19.3414      0.00000
     25      20.2511      0.00000
     26      20.9834      0.00000
     27      24.9349      0.00000
     28      26.5871      0.00000
     29      27.0364      0.00000
     30      28.1310      0.00000
     31      31.5344      0.00000
     32      32.3763      0.00000

 k-point   144 :      -0.1250    0.1250    0.3333
  band No.  band energies     occupation 
      1      -9.0277      2.00000
      2      -8.3099      2.00000
      3      -5.8965      2.00000
      4      -5.8726      2.00000
      5      -5.8303      2.00000
      6      -5.7176      2.00000
      7      -5.6475      2.00000
      8      -5.6188      2.00000
      9      -5.5929      2.00000
     10      -5.4390      2.00000
     11      -5.4012      2.00000
     12      -4.7890      2.00000
     13       2.5084      2.00000
     14       4.9577      2.00000
     15       5.3459      2.00000
     16       6.0579      2.00000
     17       6.5116      2.00000
     18       7.5734      2.00000
     19      13.1395      0.00000
     20      13.4467      0.00000
     21      16.8187      0.00000
     22      17.3586      0.00000
     23      18.7175      0.00000
     24      19.8532      0.00000
     25      20.4747      0.00000
     26      20.9428      0.00000
     27      23.6048      0.00000
     28      26.4072      0.00000
     29      26.8392      0.00000
     30      29.4304      0.00000
     31      30.5116      0.00000
     32      32.7928      0.00000

 k-point   145 :       0.0000    0.2500    0.3333
  band No.  band energies     occupation 
      1      -8.5655      2.00000
      2      -7.9968      2.00000
      3      -5.9620      2.00000
      4      -5.9051      2.00000
      5      -5.8166      2.00000
      6      -5.7160      2.00000
      7      -5.6369      2.00000
      8      -5.5992      2.00000
      9      -5.5228      2.00000
     10      -5.4514      2.00000
     11      -5.4120      2.00000
     12      -4.6736      2.00000
     13       1.6098      2.00000
     14       3.0394      2.00000
     15       4.2790      2.00000
     16       6.8102      2.00000
     17       7.1211      2.00000
     18       7.7185      2.00000
     19      13.4582      0.00000
     20      14.4000      0.00000
     21      16.1289      0.00000
     22      17.1013      0.00000
     23      18.3308      0.00000
     24      18.8615      0.00000
     25      22.1984      0.00000
     26      22.7157      0.00000
     27      24.4647      0.00000
     28      26.5667      0.00000
     29      27.0644      0.00000
     30      28.9607      0.00000
     31      30.4234      0.00000
     32      32.1397      0.00000

 k-point   146 :       0.1250    0.2500    0.3333
  band No.  band energies     occupation 
      1      -8.2628      2.00000
      2      -7.8150      2.00000
      3      -5.9035      2.00000
      4      -5.8671      2.00000
      5      -5.7930      2.00000
      6      -5.7099      2.00000
      7      -5.6339      2.00000
      8      -5.5973      2.00000
      9      -5.5768      2.00000
     10      -5.5022      2.00000
     11      -5.3694      2.00000
     12      -4.5925      2.00000
     13       1.3539      2.00000
     14       2.5874      2.00000
     15       4.5351      2.00000
     16       5.6868      2.00000
     17       6.5012      2.00000
     18       7.0953      2.00000
     19      14.1393      0.00000
     20      15.7077      0.00000
     21      16.2768      0.00000
     22      17.4383      0.00000
     23      17.7734      0.00000
     24      18.4325      0.00000
     25      23.1354      0.00000
     26      23.8025      0.00000
     27      24.0158      0.00000
     28      27.2862      0.00000
     29      28.1022      0.00000
     30      28.6691      0.00000
     31      29.0085      0.00000
     32      31.0793      0.00000

 k-point   147 :       0.2500    0.2500    0.3333
  band No.  band energies     occupation 
      1      -7.8714      2.00000
      2      -7.6376      2.00000
      3      -5.8822      2.00000
      4      -5.8425      2.00000
      5      -5.7367      2.00000
      6      -5.6729      2.00000
      7      -5.6445      2.00000
      8      -5.6441      2.00000
      9      -5.5450      2.00000
     10      -5.5257      2.00000
     11      -5.0799      2.00000
     12      -4.2512      2.00000
     13       1.2296      2.00000
     14       2.1029      2.00000
     15       3.8294      2.00000
     16       5.1350      2.00000
     17       5.4338      2.00000
     18       6.8595      2.00000
     19      15.0052      0.00000
     20      15.7059      0.00000
     21      16.3350      0.00000
     22      17.1264      0.00000
     23      17.2428      0.00000
     24      18.2316      0.00000
     25      22.7628      0.00000
     26      23.3301      0.00000
     27      23.5190      0.00000
     28      27.5587      0.00000
     29      28.4835      0.00000
     30      28.8772      0.00000
     31      30.9684      0.00000
     32      32.1893      0.00000

 k-point   148 :       0.3750    0.2500    0.3333
  band No.  band energies     occupation 
      1      -7.6571      2.00000
      2      -7.6031      2.00000
      3      -5.9333      2.00000
      4      -5.8767      2.00000
      5      -5.8008      2.00000
      6      -5.6856      2.00000
      7      -5.6219      2.00000
      8      -5.5772      2.00000
      9      -5.4746      2.00000
     10      -5.4314      2.00000
     11      -4.3749      2.00000
     12      -3.8627      2.00000
     13       0.8030      2.00000
     14       1.2269      2.00000
     15       3.4708      2.00000
     16       4.7929      2.00000
     17       6.0834      2.00000
     18       6.4462      2.00000
     19      14.4282      0.00000
     20      14.7654      0.00000
     21      15.6509      0.00000
     22      16.5879      0.00000
     23      17.1126      0.00000
     24      18.5271      0.00000
     25      21.8443      0.00000
     26      22.9426      0.00000
     27      24.2996      0.00000
     28      27.0143      0.00000
     29      28.0745      0.00000
     30      29.5711      0.00000
     31      32.4635      0.00000
     32      32.9587      0.00000

 k-point   149 :       0.5000    0.2500    0.3333
  band No.  band energies     occupation 
      1      -7.7561      2.00000
      2      -7.6607      2.00000
      3      -5.9534      2.00000
      4      -5.9114      2.00000
      5      -5.7958      2.00000
      6      -5.6963      2.00000
      7      -5.6411      2.00000
      8      -5.5756      2.00000
      9      -5.4199      2.00000
     10      -5.3773      2.00000
     11      -4.0659      2.00000
     12      -3.6461      2.00000
     13       0.6623      2.00000
     14       1.1526      2.00000
     15       4.1363      2.00000
     16       4.9406      2.00000
     17       5.7728      2.00000
     18       6.6761      2.00000
     19      12.9730      0.00000
     20      13.7242      0.00000
     21      15.1856      0.00000
     22      16.1586      0.00000
     23      18.1972      0.00000
     24      18.9304      0.00000
     25      21.1317      0.00000
     26      21.8976      0.00000
     27      24.6019      0.00000
     28      26.7070      0.00000
     29      28.4693      0.00000
     30      30.1363      0.00000
     31      31.5496      0.00000
     32      33.1193      0.00000

 k-point   150 :      -0.3750    0.2500    0.3333
  band No.  band energies     occupation 
      1      -8.0473      2.00000
      2      -7.7956      2.00000
      3      -5.9213      2.00000
      4      -5.8878      2.00000
      5      -5.7951      2.00000
      6      -5.6981      2.00000
      7      -5.6707      2.00000
      8      -5.5920      2.00000
      9      -5.4478      2.00000
     10      -5.4035      2.00000
     11      -4.6500      2.00000
     12      -3.7411      2.00000
     13       1.6190      2.00000
     14       2.5225      2.00000
     15       4.1620      2.00000
     16       5.0196      2.00000
     17       5.7110      2.00000
     18       6.7349      2.00000
     19      12.2601      0.00000
     20      13.3217      0.00000
     21      15.4167      0.00000
     22      16.3282      0.00000
     23      18.5590      0.00000
     24      19.6717      0.00000
     25      20.6375      0.00000
     26      20.9884      0.00000
     27      24.5332      0.00000
     28      26.5561      0.00000
     29      28.0534      0.00000
     30      28.9951      0.00000
     31      30.8555      0.00000
     32      33.1430      0.00000

 k-point   151 :      -0.2500    0.2500    0.3333
  band No.  band energies     occupation 
      1      -8.3872      2.00000
      2      -7.9579      2.00000
      3      -5.8623      2.00000
      4      -5.8329      2.00000
      5      -5.8239      2.00000
      6      -5.6968      2.00000
      7      -5.6929      2.00000
      8      -5.6567      2.00000
      9      -5.5360      2.00000
     10      -5.4340      2.00000
     11      -5.0881      2.00000
     12      -4.1779      2.00000
     13       2.7564      2.00000
     14       3.7755      2.00000
     15       4.1247      2.00000
     16       5.0522      2.00000
     17       5.6895      2.00000
     18       6.9804      2.00000
     19      12.8811      0.00000
     20      13.8379      0.00000
     21      15.5276      0.00000
     22      16.5939      0.00000
     23      18.7355      0.00000
     24      19.8744      0.00000
     25      20.1397      0.00000
     26      20.5157      0.00000
     27      25.3613      0.00000
     28      25.5527      0.00000
     29      27.4629      0.00000
     30      27.4842      0.00000
     31      31.4589      0.00000
     32      33.2938      0.00000

 k-point   152 :      -0.1250    0.2500    0.3333
  band No.  band energies     occupation 
      1      -8.6050      2.00000
      2      -8.0501      2.00000
      3      -5.9202      2.00000
      4      -5.8590      2.00000
      5      -5.8062      2.00000
      6      -5.7424      2.00000
      7      -5.6885      2.00000
      8      -5.6242      2.00000
      9      -5.5495      2.00000
     10      -5.4417      2.00000
     11      -5.2944      2.00000
     12      -4.5163      2.00000
     13       2.1680      2.00000
     14       3.7074      2.00000
     15       4.2310      2.00000
     16       6.3551      2.00000
     17       6.6209      2.00000
     18       7.3510      2.00000
     19      13.7164      0.00000
     20      14.2117      0.00000
     21      15.6048      0.00000
     22      16.5475      0.00000
     23      18.8650      0.00000
     24      19.3414      0.00000
     25      20.2511      0.00000
     26      20.9834      0.00000
     27      24.9349      0.00000
     28      26.5871      0.00000
     29      27.0364      0.00000
     30      28.1310      0.00000
     31      31.5344      0.00000
     32      32.3763      0.00000

 k-point   153 :      -0.0000    0.3750    0.3333
  band No.  band energies     occupation 
      1      -7.9199      2.00000
      2      -7.6406      2.00000
      3      -5.9506      2.00000
      4      -5.9018      2.00000
      5      -5.8243      2.00000
      6      -5.7899      2.00000
      7      -5.6008      2.00000
      8      -5.5631      2.00000
      9      -5.4450      2.00000
     10      -5.4342      2.00000
     11      -5.2233      2.00000
     12      -4.5078      2.00000
     13       0.2561      2.00000
     14       1.1879      2.00000
     15       4.7987      2.00000
     16       6.5663      2.00000
     17       7.3176      2.00000
     18       7.8533      2.00000
     19      13.2270      0.00000
     20      14.3587      0.00000
     21      16.3954      0.00000
     22      17.5887      0.00000
     23      17.8467      0.00000
     24      18.5085      0.00000
     25      22.1199      0.00000
     26      22.4319      0.00000
     27      23.9326      0.00000
     28      26.4068      0.00000
     29      28.4368      0.00000
     30      29.4282      0.00000
     31      30.4934      0.00000
     32      31.2733      0.00000

 k-point   154 :       0.1250    0.3750    0.3333
  band No.  band energies     occupation 
      1      -7.7495      2.00000
      2      -7.5754      2.00000
      3      -5.9172      2.00000
      4      -5.8588      2.00000
      5      -5.7900      2.00000
      6      -5.7633      2.00000
      7      -5.6536      2.00000
      8      -5.5490      2.00000
      9      -5.4923      2.00000
     10      -5.4337      2.00000
     11      -5.0360      2.00000
     12      -4.3761      2.00000
     13       0.2866      2.00000
     14       1.0311      2.00000
     15       4.8776      2.00000
     16       6.1060      2.00000
     17       6.3571      2.00000
     18       6.9261      2.00000
     19      13.8597      0.00000
     20      14.9499      0.00000
     21      16.4540      0.00000
     22      17.4110      0.00000
     23      17.9493      0.00000
     24      18.7209      0.00000
     25      21.2670      0.00000
     26      23.0145      0.00000
     27      24.1701      0.00000
     28      26.4767      0.00000
     29      28.4704      0.00000
     30      29.7035      0.00000
     31      30.6704      0.00000
     32      31.2176      0.00000

 k-point   155 :       0.2500    0.3750    0.3333
  band No.  band energies     occupation 
      1      -7.6571      2.00000
      2      -7.6031      2.00000
      3      -5.9333      2.00000
      4      -5.8767      2.00000
      5      -5.8008      2.00000
      6      -5.6856      2.00000
      7      -5.6219      2.00000
      8      -5.5772      2.00000
      9      -5.4745      2.00000
     10      -5.4315      2.00000
     11      -4.3749      2.00000
     12      -3.8627      2.00000
     13       0.8031      2.00000
     14       1.2268      2.00000
     15       3.4707      2.00000
     16       4.7930      2.00000
     17       6.0834      2.00000
     18       6.4463      2.00000
     19      14.4283      0.00000
     20      14.7654      0.00000
     21      15.6509      0.00000
     22      16.5879      0.00000
     23      17.1124      0.00000
     24      18.5272      0.00000
     25      21.8445      0.00000
     26      22.9425      0.00000
     27      24.2994      0.00000
     28      27.0144      0.00000
     29      28.0746      0.00000
     30      29.5711      0.00000
     31      32.4636      0.00000
     32      32.9588      0.00000

 k-point   156 :       0.3750    0.3750    0.3333
  band No.  band energies     occupation 
      1      -7.7200      2.00000
      2      -7.6856      2.00000
      3      -5.9519      2.00000
      4      -5.8655      2.00000
      5      -5.8641      2.00000
      6      -5.6240      2.00000
      7      -5.6148      2.00000
      8      -5.5360      2.00000
      9      -5.3982      2.00000
     10      -5.3830      2.00000
     11      -3.4788      2.00000
     12      -3.3409      2.00000
     13       1.4660      2.00000
     14       1.7682      2.00000
     15       2.0217      2.00000
     16       3.5893      2.00000
     17       5.9412      2.00000
     18       6.4989      2.00000
     19      12.8833      0.00000
     20      12.9975      0.00000
     21      15.5907      0.00000
     22      16.5518      0.00000
     23      17.2078      0.00000
     24      18.5457      0.00000
     25      22.0340      0.00000
     26      22.4102      0.00000
     27      24.5995      0.00000
     28      27.4051      0.00000
     29      27.6628      0.00000
     30      30.2590      0.00000
     31      32.1935      0.00000
     32      33.2217      0.00000

 k-point   157 :       0.5000    0.3750    0.3333
  band No.  band energies     occupation 
      1      -7.8603      2.00000
      2      -7.7590      2.00000
      3      -5.9467      2.00000
      4      -5.8852      2.00000
      5      -5.8241      2.00000
      6      -5.6490      2.00000
      7      -5.6069      2.00000
      8      -5.5534      2.00000
      9      -5.3342      2.00000
     10      -5.3255      2.00000
     11      -3.4248      2.00000
     12      -2.9194      2.00000
     13       1.5820      2.00000
     14       1.7475      2.00000
     15       3.0099      2.00000
     16       3.6276      2.00000
     17       5.2561      2.00000
     18       6.3611      2.00000
     19      11.2903      0.00000
     20      12.0210      0.00000
     21      15.5530      0.00000
     22      16.6589      0.00000
     23      18.0780      0.00000
     24      19.2423      0.00000
     25      20.5383      0.00000
     26      21.7060      0.00000
     27      24.7541      0.00000
     28      27.3236      0.00000
     29      28.5128      0.00000
     30      30.2738      0.00000
     31      31.5094      0.00000
     32      33.2254      0.00000

 k-point   158 :      -0.3750    0.3750    0.3333
  band No.  band energies     occupation 
      1      -7.9779      2.00000
      2      -7.8045      2.00000
      3      -5.9301      2.00000
      4      -5.8427      2.00000
      5      -5.8419      2.00000
      6      -5.6696      2.00000
      7      -5.6038      2.00000
      8      -5.5842      2.00000
      9      -5.3731      2.00000
     10      -5.3467      2.00000
     11      -4.0642      2.00000
     12      -3.1768      2.00000
     13       2.3789      2.00000
     14       2.7426      2.00000
     15       2.8341      2.00000
     16       4.1537      2.00000
     17       5.2297      2.00000
     18       6.2122      2.00000
     19      10.9745      0.00000
     20      12.1197      0.00000
     21      15.9378      0.00000
     22      16.7549      0.00000
     23      17.8476      0.00000
     24      20.1793      0.00000
     25      20.5902      0.00000
     26      20.9588      0.00000
     27      24.2438      0.00000
     28      27.5286      0.00000
     29      27.8107      0.00000
     30      29.4311      0.00000
     31      30.9185      0.00000
     32      33.3238      0.00000

 k-point   159 :      -0.2500    0.3750    0.3333
  band No.  band energies     occupation 
      1      -8.0473      2.00000
      2      -7.7956      2.00000
      3      -5.9213      2.00000
      4      -5.8878      2.00000
      5      -5.7951      2.00000
      6      -5.6981      2.00000
      7      -5.6707      2.00000
      8      -5.5920      2.00000
      9      -5.4478      2.00000
     10      -5.4035      2.00000
     11      -4.6500      2.00000
     12      -3.7411      2.00000
     13       1.6190      2.00000
     14       2.5225      2.00000
     15       4.1620      2.00000
     16       5.0196      2.00000
     17       5.7110      2.00000
     18       6.7349      2.00000
     19      12.2601      0.00000
     20      13.3217      0.00000
     21      15.4167      0.00000
     22      16.3282      0.00000
     23      18.5590      0.00000
     24      19.6717      0.00000
     25      20.6375      0.00000
     26      20.9884      0.00000
     27      24.5332      0.00000
     28      26.5561      0.00000
     29      28.0534      0.00000
     30      28.9951      0.00000
     31      30.8555      0.00000
     32      33.1430      0.00000

 k-point   160 :      -0.1250    0.3750    0.3333
  band No.  band energies     occupation 
      1      -8.0367      2.00000
      2      -7.7331      2.00000
      3      -5.9349      2.00000
      4      -5.8869      2.00000
      5      -5.8592      2.00000
      6      -5.8017      2.00000
      7      -5.6545      2.00000
      8      -5.5537      2.00000
      9      -5.4672      2.00000
     10      -5.4191      2.00000
     11      -5.0197      2.00000
     12      -4.2306      2.00000
     13       0.7156      2.00000
     14       1.7418      2.00000
     15       4.6505      2.00000
     16       6.3729      2.00000
     17       6.9302      2.00000
     18       7.2170      2.00000
     19      13.7305      0.00000
     20      14.4703      0.00000
     21      15.1563      0.00000
     22      16.3150      0.00000
     23      18.2800      0.00000
     24      18.7577      0.00000
     25      20.9886      0.00000
     26      21.1874      0.00000
     27      25.8419      0.00000
     28      26.4040      0.00000
     29      27.8815      0.00000
     30      29.4985      0.00000
     31      31.2077      0.00000
     32      31.7226      0.00000

 k-point   161 :       0.0000    0.5000    0.3333
  band No.  band energies     occupation 
      1      -7.6096      2.00000
      2      -7.5197      2.00000
      3      -5.9425      2.00000
      4      -5.9018      2.00000
      5      -5.8077      2.00000
      6      -5.8020      2.00000
      7      -5.5899      2.00000
      8      -5.5635      2.00000
      9      -5.4251      2.00000
     10      -5.4010      2.00000
     11      -4.8064      2.00000
     12      -4.7006      2.00000
     13      -0.1590      2.00000
     14       0.1785      2.00000
     15       5.4775      2.00000
     16       6.0536      2.00000
     17       7.4384      2.00000
     18       7.8980      2.00000
     19      13.3471      0.00000
     20      13.6333      0.00000
     21      17.2920      0.00000
     22      17.3132      0.00000
     23      18.0706      0.00000
     24      18.2649      0.00000
     25      21.8950      0.00000
     26      22.3842      0.00000
     27      23.9366      0.00000
     28      25.0071      0.00000
     29      28.9261      0.00000
     30      30.3524      0.00000
     31      30.9298      0.00000
     32      31.6922      0.00000

 k-point   162 :       0.1250    0.5000    0.3333
  band No.  band energies     occupation 
      1      -7.6502      2.00000
      2      -7.5614      2.00000
      3      -5.9256      2.00000
      4      -5.8711      2.00000
      5      -5.8473      2.00000
      6      -5.8236      2.00000
      7      -5.6450      2.00000
      8      -5.5379      2.00000
      9      -5.4463      2.00000
     10      -5.3866      2.00000
     11      -4.5878      2.00000
     12      -4.3592      2.00000
     13       0.0371      2.00000
     14       0.4417      2.00000
     15       5.3809      2.00000
     16       5.8601      2.00000
     17       6.7441      2.00000
     18       7.0641      2.00000
     19      13.8734      0.00000
     20      14.0754      0.00000
     21      16.1079      0.00000
     22      16.8167      0.00000
     23      18.0649      0.00000
     24      18.6377      0.00000
     25      20.5236      0.00000
     26      22.2818      0.00000
     27      25.0569      0.00000
     28      26.0523      0.00000
     29      28.8077      0.00000
     30      29.8266      0.00000
     31      31.3199      0.00000
     32      31.9699      0.00000

 k-point   163 :       0.2500    0.5000    0.3333
  band No.  band energies     occupation 
      1      -7.7561      2.00000
      2      -7.6607      2.00000
      3      -5.9534      2.00000
      4      -5.9114      2.00000
      5      -5.7958      2.00000
      6      -5.6963      2.00000
      7      -5.6411      2.00000
      8      -5.5756      2.00000
      9      -5.4198      2.00000
     10      -5.3773      2.00000
     11      -4.0659      2.00000
     12      -3.6462      2.00000
     13       0.6623      2.00000
     14       1.1527      2.00000
     15       4.1363      2.00000
     16       4.9407      2.00000
     17       5.7729      2.00000
     18       6.6761      2.00000
     19      12.9731      0.00000
     20      13.7241      0.00000
     21      15.1855      0.00000
     22      16.1586      0.00000
     23      18.1972      0.00000
     24      18.9304      0.00000
     25      21.1318      0.00000
     26      21.8975      0.00000
     27      24.6017      0.00000
     28      26.7072      0.00000
     29      28.4694      0.00000
     30      30.1364      0.00000
     31      31.5498      0.00000
     32      33.1192      0.00000

 k-point   164 :       0.3750    0.5000    0.3333
  band No.  band energies     occupation 
      1      -7.8603      2.00000
      2      -7.7590      2.00000
      3      -5.9467      2.00000
      4      -5.8852      2.00000
      5      -5.8241      2.00000
      6      -5.6491      2.00000
      7      -5.6069      2.00000
      8      -5.5534      2.00000
      9      -5.3341      2.00000
     10      -5.3256      2.00000
     11      -3.4248      2.00000
     12      -2.9194      2.00000
     13       1.5820      2.00000
     14       1.7475      2.00000
     15       3.0099      2.00000
     16       3.6277      2.00000
     17       5.2562      2.00000
     18       6.3611      2.00000
     19      11.2903      0.00000
     20      12.0210      0.00000
     21      15.5529      0.00000
     22      16.6587      0.00000
     23      18.0780      0.00000
     24      19.2423      0.00000
     25      20.5383      0.00000
     26      21.7061      0.00000
     27      24.7540      0.00000
     28      27.3237      0.00000
     29      28.5128      0.00000
     30      30.2739      0.00000
     31      31.5096      0.00000
     32      33.2253      0.00000

 k-point   165 :       0.5000    0.5000    0.3333
  band No.  band energies     occupation 
      1      -7.9014      2.00000
      2      -7.7990      2.00000
      3      -5.9505      2.00000
      4      -5.8611      2.00000
      5      -5.8259      2.00000
      6      -5.6617      2.00000
      7      -5.5942      2.00000
      8      -5.5534      2.00000
      9      -5.2831      2.00000
     10      -5.2775      2.00000
     11      -3.0495      2.00000
     12      -2.5948      2.00000
     13       1.3033      2.00000
     14       2.3399      2.00000
     15       2.7193      2.00000
     16       3.8018      2.00000
     17       4.7138      2.00000
     18       5.8361      2.00000
     19      10.7029      0.00000
     20      11.4422      0.00000
     21      15.3208      0.00000
     22      17.5084      0.00000
     23      18.1088      0.00000
     24      19.1829      0.00000
     25      20.3724      0.00000
     26      20.6350      0.00000
     27      25.2801      0.00000
     28      27.6149      0.00000
     29      28.9305      0.00000
     30      30.4331      0.00000
     31      31.5514      0.00000
     32      33.2980      0.00000

 k-point   166 :      -0.3750    0.5000    0.3333
  band No.  band energies     occupation 
      1      -7.8603      2.00000
      2      -7.7590      2.00000
      3      -5.9467      2.00000
      4      -5.8852      2.00000
      5      -5.8241      2.00000
      6      -5.6490      2.00000
      7      -5.6069      2.00000
      8      -5.5534      2.00000
      9      -5.3342      2.00000
     10      -5.3255      2.00000
     11      -3.4248      2.00000
     12      -2.9194      2.00000
     13       1.5820      2.00000
     14       1.7475      2.00000
     15       3.0099      2.00000
     16       3.6276      2.00000
     17       5.2561      2.00000
     18       6.3611      2.00000
     19      11.2903      0.00000
     20      12.0210      0.00000
     21      15.5530      0.00000
     22      16.6589      0.00000
     23      18.0780      0.00000
     24      19.2423      0.00000
     25      20.5383      0.00000
     26      21.7060      0.00000
     27      24.7541      0.00000
     28      27.3236      0.00000
     29      28.5128      0.00000
     30      30.2738      0.00000
     31      31.5094      0.00000
     32      33.2254      0.00000

 k-point   167 :      -0.2500    0.5000    0.3333
  band No.  band energies     occupation 
      1      -7.7561      2.00000
      2      -7.6607      2.00000
      3      -5.9534      2.00000
      4      -5.9114      2.00000
      5      -5.7958      2.00000
      6      -5.6963      2.00000
      7      -5.6411      2.00000
      8      -5.5756      2.00000
      9      -5.4199      2.00000
     10      -5.3773      2.00000
     11      -4.0659      2.00000
     12      -3.6461      2.00000
     13       0.6623      2.00000
     14       1.1526      2.00000
     15       4.1363      2.00000
     16       4.9406      2.00000
     17       5.7728      2.00000
     18       6.6761      2.00000
     19      12.9730      0.00000
     20      13.7242      0.00000
     21      15.1856      0.00000
     22      16.1586      0.00000
     23      18.1972      0.00000
     24      18.9304      0.00000
     25      21.1317      0.00000
     26      21.8976      0.00000
     27      24.6019      0.00000
     28      26.7070      0.00000
     29      28.4693      0.00000
     30      30.1363      0.00000
     31      31.5496      0.00000
     32      33.1193      0.00000

 k-point   168 :      -0.1250    0.5000    0.3333
  band No.  band energies     occupation 
      1      -7.6502      2.00000
      2      -7.5614      2.00000
      3      -5.9256      2.00000
      4      -5.8711      2.00000
      5      -5.8473      2.00000
      6      -5.8236      2.00000
      7      -5.6450      2.00000
      8      -5.5379      2.00000
      9      -5.4463      2.00000
     10      -5.3866      2.00000
     11      -4.5878      2.00000
     12      -4.3592      2.00000
     13       0.0371      2.00000
     14       0.4417      2.00000
     15       5.3809      2.00000
     16       5.8601      2.00000
     17       6.7441      2.00000
     18       7.0641      2.00000
     19      13.8732      0.00000
     20      14.0756      0.00000
     21      16.1080      0.00000
     22      16.8167      0.00000
     23      18.0649      0.00000
     24      18.6377      0.00000
     25      20.5236      0.00000
     26      22.2818      0.00000
     27      25.0571      0.00000
     28      26.0523      0.00000
     29      28.8076      0.00000
     30      29.8266      0.00000
     31      31.3198      0.00000
     32      31.9695      0.00000

 k-point   169 :      -0.0000   -0.3750    0.3333
  band No.  band energies     occupation 
      1      -7.9199      2.00000
      2      -7.6407      2.00000
      3      -5.9506      2.00000
      4      -5.9018      2.00000
      5      -5.8243      2.00000
      6      -5.7899      2.00000
      7      -5.6008      2.00000
      8      -5.5631      2.00000
      9      -5.4450      2.00000
     10      -5.4342      2.00000
     11      -5.2233      2.00000
     12      -4.5078      2.00000
     13       0.2560      2.00000
     14       1.1879      2.00000
     15       4.7987      2.00000
     16       6.5663      2.00000
     17       7.3176      2.00000
     18       7.8533      2.00000
     19      13.2268      0.00000
     20      14.3589      0.00000
     21      16.3955      0.00000
     22      17.5886      0.00000
     23      17.8466      0.00000
     24      18.5085      0.00000
     25      22.1200      0.00000
     26      22.4319      0.00000
     27      23.9327      0.00000
     28      26.4067      0.00000
     29      28.4368      0.00000
     30      29.4283      0.00000
     31      30.4934      0.00000
     32      31.2729      0.00000

 k-point   170 :       0.1250   -0.3750    0.3333
  band No.  band energies     occupation 
      1      -8.0367      2.00000
      2      -7.7331      2.00000
      3      -5.9349      2.00000
      4      -5.8869      2.00000
      5      -5.8592      2.00000
      6      -5.8017      2.00000
      7      -5.6545      2.00000
      8      -5.5537      2.00000
      9      -5.4672      2.00000
     10      -5.4191      2.00000
     11      -5.0196      2.00000
     12      -4.2306      2.00000
     13       0.7155      2.00000
     14       1.7419      2.00000
     15       4.6506      2.00000
     16       6.3728      2.00000
     17       6.9302      2.00000
     18       7.2170      2.00000
     19      13.7304      0.00000
     20      14.4704      0.00000
     21      15.1562      0.00000
     22      16.3150      0.00000
     23      18.2800      0.00000
     24      18.7578      0.00000
     25      20.9887      0.00000
     26      21.1874      0.00000
     27      25.8418      0.00000
     28      26.4039      0.00000
     29      27.8815      0.00000
     30      29.4986      0.00000
     31      31.2076      0.00000
     32      31.7229      0.00000

 k-point   171 :       0.2500   -0.3750    0.3333
  band No.  band energies     occupation 
      1      -8.0473      2.00000
      2      -7.7956      2.00000
      3      -5.9213      2.00000
      4      -5.8878      2.00000
      5      -5.7951      2.00000
      6      -5.6981      2.00000
      7      -5.6707      2.00000
      8      -5.5919      2.00000
      9      -5.4478      2.00000
     10      -5.4035      2.00000
     11      -4.6500      2.00000
     12      -3.7411      2.00000
     13       1.6189      2.00000
     14       2.5226      2.00000
     15       4.1619      2.00000
     16       5.0196      2.00000
     17       5.7111      2.00000
     18       6.7349      2.00000
     19      12.2602      0.00000
     20      13.3216      0.00000
     21      15.4166      0.00000
     22      16.3282      0.00000
     23      18.5591      0.00000
     24      19.6718      0.00000
     25      20.6374      0.00000
     26      20.9885      0.00000
     27      24.5329      0.00000
     28      26.5562      0.00000
     29      28.0535      0.00000
     30      28.9952      0.00000
     31      30.8560      0.00000
     32      33.1428      0.00000

 k-point   172 :       0.3750   -0.3750    0.3333
  band No.  band energies     occupation 
      1      -7.9779      2.00000
      2      -7.8045      2.00000
      3      -5.9301      2.00000
      4      -5.8427      2.00000
      5      -5.8419      2.00000
      6      -5.6696      2.00000
      7      -5.6038      2.00000
      8      -5.5842      2.00000
      9      -5.3731      2.00000
     10      -5.3467      2.00000
     11      -4.0642      2.00000
     12      -3.1768      2.00000
     13       2.3789      2.00000
     14       2.7426      2.00000
     15       2.8341      2.00000
     16       4.1538      2.00000
     17       5.2299      2.00000
     18       6.2122      2.00000
     19      10.9746      0.00000
     20      12.1197      0.00000
     21      15.9378      0.00000
     22      16.7547      0.00000
     23      17.8476      0.00000
     24      20.1794      0.00000
     25      20.5903      0.00000
     26      20.9588      0.00000
     27      24.2437      0.00000
     28      27.5288      0.00000
     29      27.8106      0.00000
     30      29.4312      0.00000
     31      30.9188      0.00000
     32      33.3237      0.00000

 k-point   173 :       0.5000   -0.3750    0.3333
  band No.  band energies     occupation 
      1      -7.8603      2.00000
      2      -7.7590      2.00000
      3      -5.9467      2.00000
      4      -5.8852      2.00000
      5      -5.8241      2.00000
      6      -5.6491      2.00000
      7      -5.6069      2.00000
      8      -5.5534      2.00000
      9      -5.3341      2.00000
     10      -5.3256      2.00000
     11      -3.4248      2.00000
     12      -2.9194      2.00000
     13       1.5820      2.00000
     14       1.7475      2.00000
     15       3.0099      2.00000
     16       3.6277      2.00000
     17       5.2562      2.00000
     18       6.3611      2.00000
     19      11.2903      0.00000
     20      12.0210      0.00000
     21      15.5529      0.00000
     22      16.6587      0.00000
     23      18.0780      0.00000
     24      19.2423      0.00000
     25      20.5383      0.00000
     26      21.7061      0.00000
     27      24.7540      0.00000
     28      27.3237      0.00000
     29      28.5128      0.00000
     30      30.2739      0.00000
     31      31.5096      0.00000
     32      33.2253      0.00000

 k-point   174 :      -0.3750   -0.3750    0.3333
  band No.  band energies     occupation 
      1      -7.7200      2.00000
      2      -7.6856      2.00000
      3      -5.9519      2.00000
      4      -5.8655      2.00000
      5      -5.8641      2.00000
      6      -5.6240      2.00000
      7      -5.6148      2.00000
      8      -5.5360      2.00000
      9      -5.3982      2.00000
     10      -5.3830      2.00000
     11      -3.4788      2.00000
     12      -3.3409      2.00000
     13       1.4660      2.00000
     14       1.7682      2.00000
     15       2.0217      2.00000
     16       3.5893      2.00000
     17       5.9412      2.00000
     18       6.4989      2.00000
     19      12.8833      0.00000
     20      12.9975      0.00000
     21      15.5907      0.00000
     22      16.5518      0.00000
     23      17.2078      0.00000
     24      18.5457      0.00000
     25      22.0340      0.00000
     26      22.4102      0.00000
     27      24.5995      0.00000
     28      27.4051      0.00000
     29      27.6628      0.00000
     30      30.2590      0.00000
     31      32.1935      0.00000
     32      33.2217      0.00000

 k-point   175 :      -0.2500   -0.3750    0.3333
  band No.  band energies     occupation 
      1      -7.6571      2.00000
      2      -7.6031      2.00000
      3      -5.9333      2.00000
      4      -5.8767      2.00000
      5      -5.8008      2.00000
      6      -5.6856      2.00000
      7      -5.6219      2.00000
      8      -5.5772      2.00000
      9      -5.4746      2.00000
     10      -5.4314      2.00000
     11      -4.3749      2.00000
     12      -3.8627      2.00000
     13       0.8030      2.00000
     14       1.2269      2.00000
     15       3.4708      2.00000
     16       4.7929      2.00000
     17       6.0834      2.00000
     18       6.4462      2.00000
     19      14.4282      0.00000
     20      14.7654      0.00000
     21      15.6509      0.00000
     22      16.5879      0.00000
     23      17.1126      0.00000
     24      18.5271      0.00000
     25      21.8443      0.00000
     26      22.9426      0.00000
     27      24.2996      0.00000
     28      27.0143      0.00000
     29      28.0745      0.00000
     30      29.5711      0.00000
     31      32.4635      0.00000
     32      32.9587      0.00000

 k-point   176 :      -0.1250   -0.3750    0.3333
  band No.  band energies     occupation 
      1      -7.7495      2.00000
      2      -7.5754      2.00000
      3      -5.9172      2.00000
      4      -5.8588      2.00000
      5      -5.7901      2.00000
      6      -5.7632      2.00000
      7      -5.6536      2.00000
      8      -5.5490      2.00000
      9      -5.4923      2.00000
     10      -5.4337      2.00000
     11      -5.0360      2.00000
     12      -4.3761      2.00000
     13       0.2865      2.00000
     14       1.0311      2.00000
     15       4.8777      2.00000
     16       6.1060      2.00000
     17       6.3570      2.00000
     18       6.9261      2.00000
     19      13.8595      0.00000
     20      14.9501      0.00000
     21      16.4541      0.00000
     22      17.4110      0.00000
     23      17.9492      0.00000
     24      18.7208      0.00000
     25      21.2669      0.00000
     26      23.0145      0.00000
     27      24.1703      0.00000
     28      26.4768      0.00000
     29      28.4705      0.00000
     30      29.7034      0.00000
     31      30.6705      0.00000
     32      31.2174      0.00000

 k-point   177 :      -0.0000   -0.2500    0.3333
  band No.  band energies     occupation 
      1      -8.5654      2.00000
      2      -7.9968      2.00000
      3      -5.9620      2.00000
      4      -5.9051      2.00000
      5      -5.8166      2.00000
      6      -5.7160      2.00000
      7      -5.6370      2.00000
      8      -5.5992      2.00000
      9      -5.5227      2.00000
     10      -5.4514      2.00000
     11      -5.4120      2.00000
     12      -4.6736      2.00000
     13       1.6097      2.00000
     14       3.0394      2.00000
     15       4.2790      2.00000
     16       6.8102      2.00000
     17       7.1211      2.00000
     18       7.7185      2.00000
     19      13.4582      0.00000
     20      14.4000      0.00000
     21      16.1291      0.00000
     22      17.1012      0.00000
     23      18.3307      0.00000
     24      18.8614      0.00000
     25      22.1984      0.00000
     26      22.7158      0.00000
     27      24.4648      0.00000
     28      26.5667      0.00000
     29      27.0644      0.00000
     30      28.9606      0.00000
     31      30.4234      0.00000
     32      32.1393      0.00000

 k-point   178 :       0.1250   -0.2500    0.3333
  band No.  band energies     occupation 
      1      -8.6050      2.00000
      2      -8.0501      2.00000
      3      -5.9202      2.00000
      4      -5.8589      2.00000
      5      -5.8062      2.00000
      6      -5.7424      2.00000
      7      -5.6885      2.00000
      8      -5.6241      2.00000
      9      -5.5495      2.00000
     10      -5.4417      2.00000
     11      -5.2944      2.00000
     12      -4.5163      2.00000
     13       2.1680      2.00000
     14       3.7075      2.00000
     15       4.2311      2.00000
     16       6.3551      2.00000
     17       6.6210      2.00000
     18       7.3509      2.00000
     19      13.7164      0.00000
     20      14.2117      0.00000
     21      15.6048      0.00000
     22      16.5475      0.00000
     23      18.8649      0.00000
     24      19.3413      0.00000
     25      20.2510      0.00000
     26      20.9835      0.00000
     27      24.9348      0.00000
     28      26.5870      0.00000
     29      27.0364      0.00000
     30      28.1309      0.00000
     31      31.5345      0.00000
     32      32.3761      0.00000

 k-point   179 :       0.2500   -0.2500    0.3333
  band No.  band energies     occupation 
      1      -8.3872      2.00000
      2      -7.9579      2.00000
      3      -5.8623      2.00000
      4      -5.8329      2.00000
      5      -5.8239      2.00000
      6      -5.6968      2.00000
      7      -5.6929      2.00000
      8      -5.6566      2.00000
      9      -5.5360      2.00000
     10      -5.4340      2.00000
     11      -5.0881      2.00000
     12      -4.1779      2.00000
     13       2.7563      2.00000
     14       3.7755      2.00000
     15       4.1248      2.00000
     16       5.0522      2.00000
     17       5.6896      2.00000
     18       6.9803      2.00000
     19      12.8812      0.00000
     20      13.8379      0.00000
     21      15.5275      0.00000
     22      16.5939      0.00000
     23      18.7355      0.00000
     24      19.8744      0.00000
     25      20.1397      0.00000
     26      20.5157      0.00000
     27      25.3612      0.00000
     28      25.5524      0.00000
     29      27.4630      0.00000
     30      27.4845      0.00000
     31      31.4594      0.00000
     32      33.2935      0.00000

 k-point   180 :       0.3750   -0.2500    0.3333
  band No.  band energies     occupation 
      1      -8.0473      2.00000
      2      -7.7956      2.00000
      3      -5.9213      2.00000
      4      -5.8878      2.00000
      5      -5.7951      2.00000
      6      -5.6981      2.00000
      7      -5.6707      2.00000
      8      -5.5919      2.00000
      9      -5.4478      2.00000
     10      -5.4035      2.00000
     11      -4.6500      2.00000
     12      -3.7411      2.00000
     13       1.6189      2.00000
     14       2.5226      2.00000
     15       4.1619      2.00000
     16       5.0196      2.00000
     17       5.7111      2.00000
     18       6.7349      2.00000
     19      12.2602      0.00000
     20      13.3216      0.00000
     21      15.4166      0.00000
     22      16.3282      0.00000
     23      18.5591      0.00000
     24      19.6718      0.00000
     25      20.6374      0.00000
     26      20.9885      0.00000
     27      24.5329      0.00000
     28      26.5562      0.00000
     29      28.0535      0.00000
     30      28.9952      0.00000
     31      30.8560      0.00000
     32      33.1428      0.00000

 k-point   181 :       0.5000   -0.2500    0.3333
  band No.  band energies     occupation 
      1      -7.7561      2.00000
      2      -7.6607      2.00000
      3      -5.9534      2.00000
      4      -5.9114      2.00000
      5      -5.7958      2.00000
      6      -5.6963      2.00000
      7      -5.6411      2.00000
      8      -5.5756      2.00000
      9      -5.4198      2.00000
     10      -5.3773      2.00000
     11      -4.0659      2.00000
     12      -3.6462      2.00000
     13       0.6623      2.00000
     14       1.1527      2.00000
     15       4.1363      2.00000
     16       4.9407      2.00000
     17       5.7729      2.00000
     18       6.6761      2.00000
     19      12.9731      0.00000
     20      13.7241      0.00000
     21      15.1855      0.00000
     22      16.1586      0.00000
     23      18.1972      0.00000
     24      18.9304      0.00000
     25      21.1318      0.00000
     26      21.8975      0.00000
     27      24.6017      0.00000
     28      26.7072      0.00000
     29      28.4694      0.00000
     30      30.1364      0.00000
     31      31.5498      0.00000
     32      33.1192      0.00000

 k-point   182 :      -0.3750   -0.2500    0.3333
  band No.  band energies     occupation 
      1      -7.6571      2.00000
      2      -7.6031      2.00000
      3      -5.9333      2.00000
      4      -5.8767      2.00000
      5      -5.8008      2.00000
      6      -5.6856      2.00000
      7      -5.6219      2.00000
      8      -5.5772      2.00000
      9      -5.4745      2.00000
     10      -5.4315      2.00000
     11      -4.3749      2.00000
     12      -3.8627      2.00000
     13       0.8031      2.00000
     14       1.2268      2.00000
     15       3.4707      2.00000
     16       4.7930      2.00000
     17       6.0834      2.00000
     18       6.4463      2.00000
     19      14.4283      0.00000
     20      14.7654      0.00000
     21      15.6509      0.00000
     22      16.5879      0.00000
     23      17.1124      0.00000
     24      18.5272      0.00000
     25      21.8445      0.00000
     26      22.9425      0.00000
     27      24.2994      0.00000
     28      27.0144      0.00000
     29      28.0746      0.00000
     30      29.5711      0.00000
     31      32.4636      0.00000
     32      32.9588      0.00000

 k-point   183 :      -0.2500   -0.2500    0.3333
  band No.  band energies     occupation 
      1      -7.8714      2.00000
      2      -7.6376      2.00000
      3      -5.8822      2.00000
      4      -5.8425      2.00000
      5      -5.7367      2.00000
      6      -5.6729      2.00000
      7      -5.6445      2.00000
      8      -5.6441      2.00000
      9      -5.5450      2.00000
     10      -5.5257      2.00000
     11      -5.0799      2.00000
     12      -4.2512      2.00000
     13       1.2296      2.00000
     14       2.1029      2.00000
     15       3.8294      2.00000
     16       5.1350      2.00000
     17       5.4338      2.00000
     18       6.8595      2.00000
     19      15.0052      0.00000
     20      15.7059      0.00000
     21      16.3350      0.00000
     22      17.1264      0.00000
     23      17.2428      0.00000
     24      18.2316      0.00000
     25      22.7628      0.00000
     26      23.3301      0.00000
     27      23.5190      0.00000
     28      27.5587      0.00000
     29      28.4835      0.00000
     30      28.8772      0.00000
     31      30.9684      0.00000
     32      32.1893      0.00000

 k-point   184 :      -0.1250   -0.2500    0.3333
  band No.  band energies     occupation 
      1      -8.2628      2.00000
      2      -7.8150      2.00000
      3      -5.9035      2.00000
      4      -5.8671      2.00000
      5      -5.7930      2.00000
      6      -5.7099      2.00000
      7      -5.6339      2.00000
      8      -5.5973      2.00000
      9      -5.5768      2.00000
     10      -5.5022      2.00000
     11      -5.3694      2.00000
     12      -4.5925      2.00000
     13       1.3539      2.00000
     14       2.5875      2.00000
     15       4.5352      2.00000
     16       5.6868      2.00000
     17       6.5011      2.00000
     18       7.0954      2.00000
     19      14.1392      0.00000
     20      15.7078      0.00000
     21      16.2769      0.00000
     22      17.4382      0.00000
     23      17.7734      0.00000
     24      18.4324      0.00000
     25      23.1354      0.00000
     26      23.8026      0.00000
     27      24.0159      0.00000
     28      27.2863      0.00000
     29      28.1023      0.00000
     30      28.6691      0.00000
     31      29.0086      0.00000
     32      31.0790      0.00000

 k-point   185 :      -0.0000   -0.1250    0.3333
  band No.  band energies     occupation 
      1      -9.1132      2.00000
      2      -8.3546      2.00000
      3      -5.9508      2.00000
      4      -5.8940      2.00000
      5      -5.8495      2.00000
      6      -5.6700      2.00000
      7      -5.6214      2.00000
      8      -5.5944      2.00000
      9      -5.5495      2.00000
     10      -5.4700      2.00000
     11      -5.4347      2.00000
     12      -4.9024      2.00000
     13       2.3249      2.00000
     14       4.8648      2.00000
     15       4.9633      2.00000
     16       6.7147      2.00000
     17       7.0581      2.00000
     18       7.7377      2.00000
     19      12.8847      0.00000
     20      13.0956      0.00000
     21      17.2047      0.00000
     22      17.5164      0.00000
     23      18.2743      0.00000
     24      19.3035      0.00000
     25      22.3130      0.00000
     26      22.5473      0.00000
     27      23.9183      0.00000
     28      25.9192      0.00000
     29      26.7092      0.00000
     30      29.8972      0.00000
     31      30.5288      0.00000
     32      31.9186      0.00000

 k-point   186 :       0.1250   -0.1250    0.3333
  band No.  band energies     occupation 
      1      -9.0277      2.00000
      2      -8.3100      2.00000
      3      -5.8965      2.00000
      4      -5.8726      2.00000
      5      -5.8303      2.00000
      6      -5.7176      2.00000
      7      -5.6475      2.00000
      8      -5.6188      2.00000
      9      -5.5929      2.00000
     10      -5.4390      2.00000
     11      -5.4012      2.00000
     12      -4.7890      2.00000
     13       2.5084      2.00000
     14       4.9577      2.00000
     15       5.3460      2.00000
     16       6.0579      2.00000
     17       6.5116      2.00000
     18       7.5733      2.00000
     19      13.1395      0.00000
     20      13.4467      0.00000
     21      16.8187      0.00000
     22      17.3587      0.00000
     23      18.7175      0.00000
     24      19.8531      0.00000
     25      20.4746      0.00000
     26      20.9428      0.00000
     27      23.6047      0.00000
     28      26.4073      0.00000
     29      26.8393      0.00000
     30      29.4303      0.00000
     31      30.5117      0.00000
     32      32.7925      0.00000

 k-point   187 :       0.2500   -0.1250    0.3333
  band No.  band energies     occupation 
      1      -8.6050      2.00000
      2      -8.0501      2.00000
      3      -5.9202      2.00000
      4      -5.8589      2.00000
      5      -5.8062      2.00000
      6      -5.7424      2.00000
      7      -5.6885      2.00000
      8      -5.6241      2.00000
      9      -5.5495      2.00000
     10      -5.4417      2.00000
     11      -5.2944      2.00000
     12      -4.5163      2.00000
     13       2.1680      2.00000
     14       3.7075      2.00000
     15       4.2311      2.00000
     16       6.3551      2.00000
     17       6.6210      2.00000
     18       7.3509      2.00000
     19      13.7164      0.00000
     20      14.2117      0.00000
     21      15.6048      0.00000
     22      16.5475      0.00000
     23      18.8649      0.00000
     24      19.3413      0.00000
     25      20.2510      0.00000
     26      20.9835      0.00000
     27      24.9348      0.00000
     28      26.5870      0.00000
     29      27.0364      0.00000
     30      28.1309      0.00000
     31      31.5345      0.00000
     32      32.3761      0.00000

 k-point   188 :       0.3750   -0.1250    0.3333
  band No.  band energies     occupation 
      1      -8.0367      2.00000
      2      -7.7331      2.00000
      3      -5.9349      2.00000
      4      -5.8869      2.00000
      5      -5.8592      2.00000
      6      -5.8017      2.00000
      7      -5.6545      2.00000
      8      -5.5537      2.00000
      9      -5.4672      2.00000
     10      -5.4191      2.00000
     11      -5.0196      2.00000
     12      -4.2306      2.00000
     13       0.7155      2.00000
     14       1.7419      2.00000
     15       4.6506      2.00000
     16       6.3728      2.00000
     17       6.9302      2.00000
     18       7.2170      2.00000
     19      13.7304      0.00000
     20      14.4704      0.00000
     21      15.1562      0.00000
     22      16.3150      0.00000
     23      18.2800      0.00000
     24      18.7578      0.00000
     25      20.9887      0.00000
     26      21.1874      0.00000
     27      25.8418      0.00000
     28      26.4039      0.00000
     29      27.8815      0.00000
     30      29.4986      0.00000
     31      31.2076      0.00000
     32      31.7229      0.00000

 k-point   189 :       0.5000   -0.1250    0.3333
  band No.  band energies     occupation 
      1      -7.6502      2.00000
      2      -7.5614      2.00000
      3      -5.9256      2.00000
      4      -5.8711      2.00000
      5      -5.8473      2.00000
      6      -5.8236      2.00000
      7      -5.6450      2.00000
      8      -5.5379      2.00000
      9      -5.4463      2.00000
     10      -5.3866      2.00000
     11      -4.5878      2.00000
     12      -4.3592      2.00000
     13       0.0371      2.00000
     14       0.4417      2.00000
     15       5.3809      2.00000
     16       5.8601      2.00000
     17       6.7441      2.00000
     18       7.0641      2.00000
     19      13.8734      0.00000
     20      14.0754      0.00000
     21      16.1079      0.00000
     22      16.8167      0.00000
     23      18.0649      0.00000
     24      18.6377      0.00000
     25      20.5236      0.00000
     26      22.2818      0.00000
     27      25.0569      0.00000
     28      26.0523      0.00000
     29      28.8077      0.00000
     30      29.8266      0.00000
     31      31.3199      0.00000
     32      31.9699      0.00000

 k-point   190 :      -0.3750   -0.1250    0.3333
  band No.  band energies     occupation 
      1      -7.7495      2.00000
      2      -7.5754      2.00000
      3      -5.9172      2.00000
      4      -5.8588      2.00000
      5      -5.7900      2.00000
      6      -5.7633      2.00000
      7      -5.6536      2.00000
      8      -5.5490      2.00000
      9      -5.4923      2.00000
     10      -5.4337      2.00000
     11      -5.0360      2.00000
     12      -4.3761      2.00000
     13       0.2866      2.00000
     14       1.0311      2.00000
     15       4.8776      2.00000
     16       6.1060      2.00000
     17       6.3571      2.00000
     18       6.9261      2.00000
     19      13.8597      0.00000
     20      14.9499      0.00000
     21      16.4540      0.00000
     22      17.4110      0.00000
     23      17.9493      0.00000
     24      18.7209      0.00000
     25      21.2670      0.00000
     26      23.0145      0.00000
     27      24.1701      0.00000
     28      26.4767      0.00000
     29      28.4704      0.00000
     30      29.7035      0.00000
     31      30.6704      0.00000
     32      31.2176      0.00000

 k-point   191 :      -0.2500   -0.1250    0.3333
  band No.  band energies     occupation 
      1      -8.2628      2.00000
      2      -7.8150      2.00000
      3      -5.9035      2.00000
      4      -5.8671      2.00000
      5      -5.7930      2.00000
      6      -5.7099      2.00000
      7      -5.6339      2.00000
      8      -5.5973      2.00000
      9      -5.5768      2.00000
     10      -5.5022      2.00000
     11      -5.3694      2.00000
     12      -4.5925      2.00000
     13       1.3539      2.00000
     14       2.5874      2.00000
     15       4.5351      2.00000
     16       5.6868      2.00000
     17       6.5012      2.00000
     18       7.0953      2.00000
     19      14.1393      0.00000
     20      15.7077      0.00000
     21      16.2768      0.00000
     22      17.4383      0.00000
     23      17.7734      0.00000
     24      18.4325      0.00000
     25      23.1354      0.00000
     26      23.8025      0.00000
     27      24.0158      0.00000
     28      27.2862      0.00000
     29      28.1022      0.00000
     30      28.6691      0.00000
     31      29.0085      0.00000
     32      31.0793      0.00000

 k-point   192 :      -0.1250   -0.1250    0.3333
  band No.  band energies     occupation 
      1      -8.8222      2.00000
      2      -8.1510      2.00000
      3      -5.9420      2.00000
      4      -5.8867      2.00000
      5      -5.8482      2.00000
      6      -5.6656      2.00000
      7      -5.6163      2.00000
      8      -5.6136      2.00000
      9      -5.5315      2.00000
     10      -5.5034      2.00000
     11      -5.4600      2.00000
     12      -4.8112      2.00000
     13       2.1046      2.00000
     14       4.0001      2.00000
     15       4.7235      2.00000
     16       6.0759      2.00000
     17       7.0811      2.00000
     18       7.0855      2.00000
     19      13.7725      0.00000
     20      14.2577      0.00000
     21      17.2331      0.00000
     22      17.2947      0.00000
     23      17.9563      0.00000
     24      18.3636      0.00000
     25      23.6932      0.00000
     26      23.9565      0.00000
     27      25.2497      0.00000
     28      25.3479      0.00000
     29      27.1322      0.00000
     30      29.2813      0.00000
     31      29.9469      0.00000
     32      31.0766      0.00000

 k-point   193 :      -0.0000    0.0000    0.5000
  band No.  band energies     occupation 
      1      -8.8766      2.00000
      2      -8.8766      2.00000
      3      -5.9233      2.00000
      4      -5.9233      2.00000
      5      -5.7459      2.00000
      6      -5.7459      2.00000
      7      -5.5895      2.00000
      8      -5.5895      2.00000
      9      -5.5083      2.00000
     10      -5.5083      2.00000
     11      -5.3921      2.00000
     12      -5.3921      2.00000
     13       4.1294      2.00000
     14       4.1295      2.00000
     15       6.0063      2.00000
     16       6.0065      2.00000
     17       7.6091      2.00000
     18       7.6092      2.00000
     19      12.6223      0.00000
     20      12.6224      0.00000
     21      17.2085      0.00000
     22      17.2086      0.00000
     23      18.8147      0.00000
     24      18.8148      0.00000
     25      21.9709      0.00000
     26      21.9711      0.00000
     27      24.8174      0.00000
     28      24.8175      0.00000
     29      29.4868      0.00000
     30      29.4871      0.00000
     31      31.8313      0.00000
     32      31.8313      0.00000

 k-point   194 :       0.1250   -0.0000    0.5000
  band No.  band energies     occupation 
      1      -8.6979      2.00000
      2      -8.6978      2.00000
      3      -5.9202      2.00000
      4      -5.9202      2.00000
      5      -5.7614      2.00000
      6      -5.7614      2.00000
      7      -5.6238      2.00000
      8      -5.6237      2.00000
      9      -5.4932      2.00000
     10      -5.4932      2.00000
     11      -5.3276      2.00000
     12      -5.3275      2.00000
     13       3.7376      2.00000
     14       3.7376      2.00000
     15       5.7998      2.00000
     16       5.7998      2.00000
     17       7.3612      2.00000
     18       7.3613      2.00000
     19      13.3807      0.00000
     20      13.3808      0.00000
     21      16.7503      0.00000
     22      16.7505      0.00000
     23      18.6675      0.00000
     24      18.6676      0.00000
     25      22.3436      0.00000
     26      22.3438      0.00000
     27      24.9963      0.00000
     28      24.9963      0.00000
     29      28.4926      0.00000
     30      28.4927      0.00000
     31      31.5565      0.00000
     32      31.5566      0.00000

 k-point   195 :       0.2500    0.0000    0.5000
  band No.  band energies     occupation 
      1      -8.2345      2.00000
      2      -8.2344      2.00000
      3      -5.9363      2.00000
      4      -5.9363      2.00000
      5      -5.7888      2.00000
      6      -5.7888      2.00000
      7      -5.6152      2.00000
      8      -5.6151      2.00000
      9      -5.4775      2.00000
     10      -5.4774      2.00000
     11      -5.1787      2.00000
     12      -5.1787      2.00000
     13       2.2568      2.00000
     14       2.2569      2.00000
     15       5.8010      2.00000
     16       5.8011      2.00000
     17       7.3826      2.00000
     18       7.3826      2.00000
     19      14.1280      0.00000
     20      14.1281      0.00000
     21      16.1473      0.00000
     22      16.1474      0.00000
     23      18.5233      0.00000
     24      18.5234      0.00000
     25      22.3841      0.00000
     26      22.3842      0.00000
     27      25.8503      0.00000
     28      25.8503      0.00000
     29      27.7140      0.00000
     30      27.7140      0.00000
     31      31.6241      0.00000
     32      31.6243      0.00000

 k-point   196 :       0.3750    0.0000    0.5000
  band No.  band energies     occupation 
      1      -7.7339      2.00000
      2      -7.7339      2.00000
      3      -5.9400      2.00000
      4      -5.9400      2.00000
      5      -5.8225      2.00000
      6      -5.8225      2.00000
      7      -5.5620      2.00000
      8      -5.5620      2.00000
      9      -5.4301      2.00000
     10      -5.4301      2.00000
     11      -4.9605      2.00000
     12      -4.9605      2.00000
     13       0.5521      2.00000
     14       0.5522      2.00000
     15       6.1409      2.00000
     16       6.1410      2.00000
     17       7.5822      2.00000
     18       7.5822      2.00000
     19      13.3944      0.00000
     20      13.3946      0.00000
     21      16.9512      0.00000
     22      16.9514      0.00000
     23      18.2365      0.00000
     24      18.2366      0.00000
     25      22.1225      0.00000
     26      22.1226      0.00000
     27      24.9974      0.00000
     28      24.9976      0.00000
     29      29.4791      0.00000
     30      29.4792      0.00000
     31      31.3143      0.00000
     32      31.3145      0.00000

 k-point   197 :       0.5000    0.0000    0.5000
  band No.  band energies     occupation 
      1      -7.5260      2.00000
      2      -7.5259      2.00000
      3      -5.9428      2.00000
      4      -5.9428      2.00000
      5      -5.8140      2.00000
      6      -5.8139      2.00000
      7      -5.5546      2.00000
      8      -5.5546      2.00000
      9      -5.3891      2.00000
     10      -5.3890      2.00000
     11      -4.7931      2.00000
     12      -4.7930      2.00000
     13      -0.2280      2.00000
     14      -0.2279      2.00000
     15       6.3373      2.00000
     16       6.3374      2.00000
     17       7.6795      2.00000
     18       7.6795      2.00000
     19      12.9401      0.00000
     20      12.9403      0.00000
     21      17.3658      0.00000
     22      17.3661      0.00000
     23      18.2129      0.00000
     24      18.2130      0.00000
     25      22.1443      0.00000
     26      22.1444      0.00000
     27      24.1082      0.00000
     28      24.1084      0.00000
     29      30.0534      0.00000
     30      30.0537      0.00000
     31      32.0917      0.00000
     32      32.0921      0.00000

 k-point   198 :      -0.3750   -0.0000    0.5000
  band No.  band energies     occupation 
      1      -7.7339      2.00000
      2      -7.7339      2.00000
      3      -5.9400      2.00000
      4      -5.9400      2.00000
      5      -5.8225      2.00000
      6      -5.8225      2.00000
      7      -5.5620      2.00000
      8      -5.5620      2.00000
      9      -5.4301      2.00000
     10      -5.4301      2.00000
     11      -4.9605      2.00000
     12      -4.9605      2.00000
     13       0.5521      2.00000
     14       0.5522      2.00000
     15       6.1409      2.00000
     16       6.1410      2.00000
     17       7.5822      2.00000
     18       7.5822      2.00000
     19      13.3944      0.00000
     20      13.3946      0.00000
     21      16.9512      0.00000
     22      16.9514      0.00000
     23      18.2365      0.00000
     24      18.2366      0.00000
     25      22.1225      0.00000
     26      22.1226      0.00000
     27      24.9974      0.00000
     28      24.9976      0.00000
     29      29.4791      0.00000
     30      29.4792      0.00000
     31      31.3143      0.00000
     32      31.3145      0.00000

 k-point   199 :      -0.2500   -0.0000    0.5000
  band No.  band energies     occupation 
      1      -8.2345      2.00000
      2      -8.2344      2.00000
      3      -5.9363      2.00000
      4      -5.9363      2.00000
      5      -5.7888      2.00000
      6      -5.7888      2.00000
      7      -5.6152      2.00000
      8      -5.6151      2.00000
      9      -5.4775      2.00000
     10      -5.4774      2.00000
     11      -5.1787      2.00000
     12      -5.1787      2.00000
     13       2.2568      2.00000
     14       2.2569      2.00000
     15       5.8010      2.00000
     16       5.8011      2.00000
     17       7.3826      2.00000
     18       7.3826      2.00000
     19      14.1280      0.00000
     20      14.1281      0.00000
     21      16.1473      0.00000
     22      16.1474      0.00000
     23      18.5233      0.00000
     24      18.5234      0.00000
     25      22.3841      0.00000
     26      22.3842      0.00000
     27      25.8503      0.00000
     28      25.8503      0.00000
     29      27.7140      0.00000
     30      27.7140      0.00000
     31      31.6241      0.00000
     32      31.6243      0.00000

 k-point   200 :      -0.1250   -0.0000    0.5000
  band No.  band energies     occupation 
      1      -8.6979      2.00000
      2      -8.6978      2.00000
      3      -5.9202      2.00000
      4      -5.9202      2.00000
      5      -5.7614      2.00000
      6      -5.7614      2.00000
      7      -5.6238      2.00000
      8      -5.6237      2.00000
      9      -5.4932      2.00000
     10      -5.4932      2.00000
     11      -5.3276      2.00000
     12      -5.3275      2.00000
     13       3.7376      2.00000
     14       3.7376      2.00000
     15       5.7998      2.00000
     16       5.7998      2.00000
     17       7.3612      2.00000
     18       7.3613      2.00000
     19      13.3807      0.00000
     20      13.3808      0.00000
     21      16.7503      0.00000
     22      16.7505      0.00000
     23      18.6675      0.00000
     24      18.6676      0.00000
     25      22.3436      0.00000
     26      22.3438      0.00000
     27      24.9963      0.00000
     28      24.9963      0.00000
     29      28.4926      0.00000
     30      28.4927      0.00000
     31      31.5565      0.00000
     32      31.5566      0.00000

 k-point   201 :       0.0000    0.1250    0.5000
  band No.  band energies     occupation 
      1      -8.6979      2.00000
      2      -8.6978      2.00000
      3      -5.9202      2.00000
      4      -5.9202      2.00000
      5      -5.7614      2.00000
      6      -5.7614      2.00000
      7      -5.6238      2.00000
      8      -5.6237      2.00000
      9      -5.4932      2.00000
     10      -5.4932      2.00000
     11      -5.3276      2.00000
     12      -5.3275      2.00000
     13       3.7376      2.00000
     14       3.7376      2.00000
     15       5.7998      2.00000
     16       5.7998      2.00000
     17       7.3612      2.00000
     18       7.3613      2.00000
     19      13.3807      0.00000
     20      13.3808      0.00000
     21      16.7503      0.00000
     22      16.7505      0.00000
     23      18.6675      0.00000
     24      18.6676      0.00000
     25      22.3436      0.00000
     26      22.3438      0.00000
     27      24.9963      0.00000
     28      24.9963      0.00000
     29      28.4926      0.00000
     30      28.4927      0.00000
     31      31.5565      0.00000
     32      31.5566      0.00000

 k-point   202 :       0.1250    0.1250    0.5000
  band No.  band energies     occupation 
      1      -8.4441      2.00000
      2      -8.4440      2.00000
      3      -5.9176      2.00000
      4      -5.9176      2.00000
      5      -5.7708      2.00000
      6      -5.7707      2.00000
      7      -5.6112      2.00000
      8      -5.6111      2.00000
      9      -5.5210      2.00000
     10      -5.5210      2.00000
     11      -5.2732      2.00000
     12      -5.2732      2.00000
     13       3.0762      2.00000
     14       3.0763      2.00000
     15       5.9729      2.00000
     16       5.9729      2.00000
     17       6.5949      2.00000
     18       6.5950      2.00000
     19      14.4484      0.00000
     20      14.4484      0.00000
     21      16.5382      0.00000
     22      16.5384      0.00000
     23      18.0754      0.00000
     24      18.0755      0.00000
     25      24.1016      0.00000
     26      24.1017      0.00000
     27      25.5154      0.00000
     28      25.5155      0.00000
     29      27.8801      0.00000
     30      27.8801      0.00000
     31      30.7572      0.00000
     32      30.7573      0.00000

 k-point   203 :       0.2500    0.1250    0.5000
  band No.  band energies     occupation 
      1      -7.9893      2.00000
      2      -7.9893      2.00000
      3      -5.8939      2.00000
      4      -5.8939      2.00000
      5      -5.7631      2.00000
      6      -5.7631      2.00000
      7      -5.6034      2.00000
      8      -5.6034      2.00000
      9      -5.5477      2.00000
     10      -5.5477      2.00000
     11      -5.1006      2.00000
     12      -5.1005      2.00000
     13       1.8617      2.00000
     14       1.8618      2.00000
     15       5.7416      2.00000
     16       5.7417      2.00000
     17       6.4748      2.00000
     18       6.4748      2.00000
     19      14.8174      0.00000
     20      14.8175      0.00000
     21      16.5779      0.00000
     22      16.5780      0.00000
     23      18.0486      0.00000
     24      18.0487      0.00000
     25      23.7515      0.00000
     26      23.7516      0.00000
     27      25.4402      0.00000
     28      25.4403      0.00000
     29      28.3998      0.00000
     30      28.3999      0.00000
     31      29.8047      0.00000
     32      29.8048      0.00000

 k-point   204 :       0.3750    0.1250    0.5000
  band No.  band energies     occupation 
      1      -7.6200      2.00000
      2      -7.6200      2.00000
      3      -5.9069      2.00000
      4      -5.9068      2.00000
      5      -5.7856      2.00000
      6      -5.7856      2.00000
      7      -5.5958      2.00000
      8      -5.5958      2.00000
      9      -5.4549      2.00000
     10      -5.4549      2.00000
     11      -4.7612      2.00000
     12      -4.7611      2.00000
     13       0.4679      2.00000
     14       0.4680      2.00000
     15       5.8063      2.00000
     16       5.8064      2.00000
     17       6.8038      2.00000
     18       6.8038      2.00000
     19      13.9757      0.00000
     20      13.9759      0.00000
     21      16.8456      0.00000
     22      16.8457      0.00000
     23      18.3330      0.00000
     24      18.3332      0.00000
     25      22.3443      0.00000
     26      22.3444      0.00000
     27      24.9939      0.00000
     28      24.9941      0.00000
     29      29.1165      0.00000
     30      29.1168      0.00000
     31      30.9071      0.00000
     32      30.9073      0.00000

 k-point   205 :       0.5000    0.1250    0.5000
  band No.  band energies     occupation 
      1      -7.5671      2.00000
      2      -7.5671      2.00000
      3      -5.9142      2.00000
      4      -5.9142      2.00000
      5      -5.8508      2.00000
      6      -5.8507      2.00000
      7      -5.5913      2.00000
      8      -5.5913      2.00000
      9      -5.3950      2.00000
     10      -5.3950      2.00000
     11      -4.4920      2.00000
     12      -4.4919      2.00000
     13       0.0134      2.00000
     14       0.0135      2.00000
     15       6.1170      2.00000
     16       6.1171      2.00000
     17       6.9062      2.00000
     18       6.9062      2.00000
     19      13.5801      0.00000
     20      13.5804      0.00000
     21      16.4210      0.00000
     22      16.4211      0.00000
     23      18.3792      0.00000
     24      18.3793      0.00000
     25      21.2560      0.00000
     26      21.2561      0.00000
     27      25.6765      0.00000
     28      25.6767      0.00000
     29      29.1368      0.00000
     30      29.1370      0.00000
     31      31.6970      0.00000
     32      31.6973      0.00000

 k-point   206 :      -0.3750    0.1250    0.5000
  band No.  band energies     occupation 
      1      -7.8391      2.00000
      2      -7.8391      2.00000
      3      -5.9166      2.00000
      4      -5.9166      2.00000
      5      -5.8562      2.00000
      6      -5.8562      2.00000
      7      -5.6045      2.00000
      8      -5.6045      2.00000
      9      -5.4293      2.00000
     10      -5.4293      2.00000
     11      -4.7194      2.00000
     12      -4.7193      2.00000
     13       1.0920      2.00000
     14       1.0920      2.00000
     15       5.9640      2.00000
     16       5.9641      2.00000
     17       6.9841      2.00000
     18       6.9841      2.00000
     19      13.8675      0.00000
     20      13.8677      0.00000
     21      15.7153      0.00000
     22      15.7154      0.00000
     23      18.6191      0.00000
     24      18.6194      0.00000
     25      20.7673      0.00000
     26      20.7673      0.00000
     27      26.5157      0.00000
     28      26.5159      0.00000
     29      28.7085      0.00000
     30      28.7086      0.00000
     31      30.8353      0.00000
     32      30.8357      0.00000

 k-point   207 :      -0.2500    0.1250    0.5000
  band No.  band energies     occupation 
      1      -8.2822      2.00000
      2      -8.2822      2.00000
      3      -5.8880      2.00000
      4      -5.8880      2.00000
      5      -5.7953      2.00000
      6      -5.7953      2.00000
      7      -5.6657      2.00000
      8      -5.6657      2.00000
      9      -5.4913      2.00000
     10      -5.4913      2.00000
     11      -5.0343      2.00000
     12      -5.0343      2.00000
     13       2.9313      2.00000
     14       2.9314      2.00000
     15       5.4660      2.00000
     16       5.4660      2.00000
     17       6.9696      2.00000
     18       6.9696      2.00000
     19      14.2543      0.00000
     20      14.2543      0.00000
     21      15.5399      0.00000
     22      15.5401      0.00000
     23      19.2024      0.00000
     24      19.2025      0.00000
     25      20.4712      0.00000
     26      20.4713      0.00000
     27      25.7967      0.00000
     28      25.7967      0.00000
     29      27.8902      0.00000
     30      27.8904      0.00000
     31      31.6988      0.00000
     32      31.6992      0.00000

 k-point   208 :      -0.1250    0.1250    0.5000
  band No.  band energies     occupation 
      1      -8.6307      2.00000
      2      -8.6306      2.00000
      3      -5.8666      2.00000
      4      -5.8665      2.00000
      5      -5.7883      2.00000
      6      -5.7883      2.00000
      7      -5.6594      2.00000
      8      -5.6593      2.00000
      9      -5.5150      2.00000
     10      -5.5149      2.00000
     11      -5.2328      2.00000
     12      -5.2328      2.00000
     13       4.0342      2.00000
     14       4.0342      2.00000
     15       5.4866      2.00000
     16       5.4867      2.00000
     17       7.0495      2.00000
     18       7.0495      2.00000
     19      13.6662      0.00000
     20      13.6663      0.00000
     21      16.4178      0.00000
     22      16.4180      0.00000
     23      19.2763      0.00000
     24      19.2764      0.00000
     25      20.6769      0.00000
     26      20.6772      0.00000
     27      24.8542      0.00000
     28      24.8544      0.00000
     29      28.4349      0.00000
     30      28.4351      0.00000
     31      32.4279      0.00000
     32      32.4281      0.00000

 k-point   209 :       0.0000    0.2500    0.5000
  band No.  band energies     occupation 
      1      -8.2345      2.00000
      2      -8.2344      2.00000
      3      -5.9363      2.00000
      4      -5.9363      2.00000
      5      -5.7888      2.00000
      6      -5.7888      2.00000
      7      -5.6152      2.00000
      8      -5.6151      2.00000
      9      -5.4775      2.00000
     10      -5.4774      2.00000
     11      -5.1787      2.00000
     12      -5.1787      2.00000
     13       2.2568      2.00000
     14       2.2569      2.00000
     15       5.8010      2.00000
     16       5.8011      2.00000
     17       7.3826      2.00000
     18       7.3826      2.00000
     19      14.1280      0.00000
     20      14.1281      0.00000
     21      16.1473      0.00000
     22      16.1474      0.00000
     23      18.5233      0.00000
     24      18.5234      0.00000
     25      22.3841      0.00000
     26      22.3842      0.00000
     27      25.8503      0.00000
     28      25.8503      0.00000
     29      27.7140      0.00000
     30      27.7140      0.00000
     31      31.6241      0.00000
     32      31.6243      0.00000

 k-point   210 :       0.1250    0.2500    0.5000
  band No.  band energies     occupation 
      1      -7.9893      2.00000
      2      -7.9893      2.00000
      3      -5.8939      2.00000
      4      -5.8939      2.00000
      5      -5.7631      2.00000
      6      -5.7631      2.00000
      7      -5.6034      2.00000
      8      -5.6034      2.00000
      9      -5.5477      2.00000
     10      -5.5477      2.00000
     11      -5.1006      2.00000
     12      -5.1005      2.00000
     13       1.8617      2.00000
     14       1.8618      2.00000
     15       5.7416      2.00000
     16       5.7417      2.00000
     17       6.4748      2.00000
     18       6.4748      2.00000
     19      14.8174      0.00000
     20      14.8175      0.00000
     21      16.5779      0.00000
     22      16.5780      0.00000
     23      18.0486      0.00000
     24      18.0487      0.00000
     25      23.7515      0.00000
     26      23.7516      0.00000
     27      25.4402      0.00000
     28      25.4403      0.00000
     29      28.3998      0.00000
     30      28.3999      0.00000
     31      29.8047      0.00000
     32      29.8048      0.00000

 k-point   211 :       0.2500    0.2500    0.5000
  band No.  band energies     occupation 
      1      -7.7095      2.00000
      2      -7.7094      2.00000
      3      -5.8744      2.00000
      4      -5.8743      2.00000
      5      -5.7063      2.00000
      6      -5.7063      2.00000
      7      -5.6529      2.00000
      8      -5.6528      2.00000
      9      -5.5423      2.00000
     10      -5.5423      2.00000
     11      -4.7386      2.00000
     12      -4.7385      2.00000
     13       1.5136      2.00000
     14       1.5136      2.00000
     15       4.4657      2.00000
     16       4.4657      2.00000
     17       6.5637      2.00000
     18       6.5637      2.00000
     19      15.1611      0.00000
     20      15.1612      0.00000
     21      16.5630      0.00000
     22      16.5631      0.00000
     23      17.6402      0.00000
     24      17.6403      0.00000
     25      23.1342      0.00000
     26      23.1343      0.00000
     27      25.2250      0.00000
     28      25.2251      0.00000
     29      28.8943      0.00000
     30      28.8944      0.00000
     31      31.3743      0.00000
     32      31.3745      0.00000

 k-point   212 :       0.3750    0.2500    0.5000
  band No.  band energies     occupation 
      1      -7.5930      2.00000
      2      -7.5930      2.00000
      3      -5.9236      2.00000
      4      -5.9236      2.00000
      5      -5.7425      2.00000
      6      -5.7425      2.00000
      7      -5.6194      2.00000
      8      -5.6194      2.00000
      9      -5.4468      2.00000
     10      -5.4467      2.00000
     11      -4.1301      2.00000
     12      -4.1301      2.00000
     13       0.8179      2.00000
     14       0.8180      2.00000
     15       4.0875      2.00000
     16       4.0876      2.00000
     17       6.7253      2.00000
     18       6.7254      2.00000
     19      14.7342      0.00000
     20      14.7343      0.00000
     21      15.6187      0.00000
     22      15.6187      0.00000
     23      17.7756      0.00000
     24      17.7758      0.00000
     25      22.3792      0.00000
     26      22.3793      0.00000
     27      25.4333      0.00000
     28      25.4335      0.00000
     29      28.7987      0.00000
     30      28.7987      0.00000
     31      32.8096      0.00000
     32      32.8098      0.00000

 k-point   213 :       0.5000    0.2500    0.5000
  band No.  band energies     occupation 
      1      -7.6719      2.00000
      2      -7.6718      2.00000
      3      -5.9464      2.00000
      4      -5.9463      2.00000
      5      -5.7483      2.00000
      6      -5.7483      2.00000
      7      -5.6336      2.00000
      8      -5.6335      2.00000
      9      -5.3895      2.00000
     10      -5.3895      2.00000
     11      -3.8664      2.00000
     12      -3.8663      2.00000
     13       0.7367      2.00000
     14       0.7368      2.00000
     15       4.5663      2.00000
     16       4.5664      2.00000
     17       6.4912      2.00000
     18       6.4912      2.00000
     19      13.6302      0.00000
     20      13.6303      0.00000
     21      15.2733      0.00000
     22      15.2735      0.00000
     23      18.4633      0.00000
     24      18.4635      0.00000
     25      21.4240      0.00000
     26      21.4242      0.00000
     27      25.5198      0.00000
     28      25.5201      0.00000
     29      28.9760      0.00000
     30      28.9760      0.00000
     31      32.5489      0.00000
     32      32.5491      0.00000

 k-point   214 :      -0.3750    0.2500    0.5000
  band No.  band energies     occupation 
      1      -7.8802      2.00000
      2      -7.8802      2.00000
      3      -5.9174      2.00000
      4      -5.9174      2.00000
      5      -5.7436      2.00000
      6      -5.7436      2.00000
      7      -5.6600      2.00000
      8      -5.6599      2.00000
      9      -5.4230      2.00000
     10      -5.4229      2.00000
     11      -4.2775      2.00000
     12      -4.2774      2.00000
     13       2.0070      2.00000
     14       2.0071      2.00000
     15       4.7694      2.00000
     16       4.7695      2.00000
     17       6.2371      2.00000
     18       6.2372      2.00000
     19      12.8816      0.00000
     20      12.8817      0.00000
     21      15.7068      0.00000
     22      15.7069      0.00000
     23      19.2758      0.00000
     24      19.2759      0.00000
     25      20.5061      0.00000
     26      20.5063      0.00000
     27      25.6822      0.00000
     28      25.6825      0.00000
     29      27.9044      0.00000
     30      27.9045      0.00000
     31      32.1332      0.00000
     32      32.1336      0.00000

 k-point   215 :      -0.2500    0.2500    0.5000
  band No.  band energies     occupation 
      1      -8.1274      2.00000
      2      -8.1273      2.00000
      3      -5.8630      2.00000
      4      -5.8629      2.00000
      5      -5.7568      2.00000
      6      -5.7568      2.00000
      7      -5.6938      2.00000
      8      -5.6937      2.00000
      9      -5.4901      2.00000
     10      -5.4900      2.00000
     11      -4.7457      2.00000
     12      -4.7456      2.00000
     13       3.5326      2.00000
     14       3.5326      2.00000
     15       4.3837      2.00000
     16       4.3838      2.00000
     17       6.4329      2.00000
     18       6.4330      2.00000
     19      13.3519      0.00000
     20      13.3520      0.00000
     21      15.8693      0.00000
     22      15.8695      0.00000
     23      19.5831      0.00000
     24      19.5832      0.00000
     25      20.0992      0.00000
     26      20.0995      0.00000
     27      26.0877      0.00000
     28      26.0879      0.00000
     29      26.6283      0.00000
     30      26.6287      0.00000
     31      32.0647      0.00000
     32      32.0652      0.00000

 k-point   216 :      -0.1250    0.2500    0.5000
  band No.  band energies     occupation 
      1      -8.2822      2.00000
      2      -8.2822      2.00000
      3      -5.8880      2.00000
      4      -5.8880      2.00000
      5      -5.7953      2.00000
      6      -5.7953      2.00000
      7      -5.6657      2.00000
      8      -5.6657      2.00000
      9      -5.4913      2.00000
     10      -5.4913      2.00000
     11      -5.0343      2.00000
     12      -5.0343      2.00000
     13       2.9313      2.00000
     14       2.9314      2.00000
     15       5.4660      2.00000
     16       5.4660      2.00000
     17       6.9696      2.00000
     18       6.9696      2.00000
     19      14.2543      0.00000
     20      14.2543      0.00000
     21      15.5399      0.00000
     22      15.5401      0.00000
     23      19.2024      0.00000
     24      19.2025      0.00000
     25      20.4712      0.00000
     26      20.4713      0.00000
     27      25.7967      0.00000
     28      25.7967      0.00000
     29      27.8902      0.00000
     30      27.8904      0.00000
     31      31.6988      0.00000
     32      31.6992      0.00000

 k-point   217 :       0.0000    0.3750    0.5000
  band No.  band energies     occupation 
      1      -7.7339      2.00000
      2      -7.7339      2.00000
      3      -5.9400      2.00000
      4      -5.9400      2.00000
      5      -5.8225      2.00000
      6      -5.8225      2.00000
      7      -5.5620      2.00000
      8      -5.5620      2.00000
      9      -5.4301      2.00000
     10      -5.4301      2.00000
     11      -4.9605      2.00000
     12      -4.9605      2.00000
     13       0.5521      2.00000
     14       0.5522      2.00000
     15       6.1409      2.00000
     16       6.1410      2.00000
     17       7.5822      2.00000
     18       7.5822      2.00000
     19      13.3944      0.00000
     20      13.3946      0.00000
     21      16.9512      0.00000
     22      16.9514      0.00000
     23      18.2365      0.00000
     24      18.2366      0.00000
     25      22.1225      0.00000
     26      22.1226      0.00000
     27      24.9974      0.00000
     28      24.9976      0.00000
     29      29.4791      0.00000
     30      29.4792      0.00000
     31      31.3143      0.00000
     32      31.3145      0.00000

 k-point   218 :       0.1250    0.3750    0.5000
  band No.  band energies     occupation 
      1      -7.6200      2.00000
      2      -7.6200      2.00000
      3      -5.9069      2.00000
      4      -5.9068      2.00000
      5      -5.7856      2.00000
      6      -5.7856      2.00000
      7      -5.5958      2.00000
      8      -5.5958      2.00000
      9      -5.4549      2.00000
     10      -5.4549      2.00000
     11      -4.7612      2.00000
     12      -4.7611      2.00000
     13       0.4679      2.00000
     14       0.4680      2.00000
     15       5.8063      2.00000
     16       5.8064      2.00000
     17       6.8038      2.00000
     18       6.8038      2.00000
     19      13.9757      0.00000
     20      13.9759      0.00000
     21      16.8456      0.00000
     22      16.8457      0.00000
     23      18.3330      0.00000
     24      18.3332      0.00000
     25      22.3443      0.00000
     26      22.3444      0.00000
     27      24.9939      0.00000
     28      24.9941      0.00000
     29      29.1165      0.00000
     30      29.1168      0.00000
     31      30.9071      0.00000
     32      30.9073      0.00000

 k-point   219 :       0.2500    0.3750    0.5000
  band No.  band energies     occupation 
      1      -7.5930      2.00000
      2      -7.5930      2.00000
      3      -5.9236      2.00000
      4      -5.9236      2.00000
      5      -5.7425      2.00000
      6      -5.7425      2.00000
      7      -5.6194      2.00000
      8      -5.6194      2.00000
      9      -5.4468      2.00000
     10      -5.4467      2.00000
     11      -4.1301      2.00000
     12      -4.1301      2.00000
     13       0.8179      2.00000
     14       0.8180      2.00000
     15       4.0875      2.00000
     16       4.0876      2.00000
     17       6.7253      2.00000
     18       6.7254      2.00000
     19      14.7342      0.00000
     20      14.7343      0.00000
     21      15.6187      0.00000
     22      15.6187      0.00000
     23      17.7756      0.00000
     24      17.7758      0.00000
     25      22.3792      0.00000
     26      22.3793      0.00000
     27      25.4333      0.00000
     28      25.4335      0.00000
     29      28.7987      0.00000
     30      28.7987      0.00000
     31      32.8096      0.00000
     32      32.8098      0.00000

 k-point   220 :       0.3750    0.3750    0.5000
  band No.  band energies     occupation 
      1      -7.6691      2.00000
      2      -7.6691      2.00000
      3      -5.9359      2.00000
      4      -5.9358      2.00000
      5      -5.7520      2.00000
      6      -5.7520      2.00000
      7      -5.5812      2.00000
      8      -5.5811      2.00000
      9      -5.3882      2.00000
     10      -5.3881      2.00000
     11      -3.4021      2.00000
     12      -3.4021      2.00000
     13       1.4177      2.00000
     14       1.4178      2.00000
     15       2.7486      2.00000
     16       2.7487      2.00000
     17       6.5346      2.00000
     18       6.5346      2.00000
     19      13.3479      0.00000
     20      13.3480      0.00000
     21      16.1438      0.00000
     22      16.1440      0.00000
     23      17.1448      0.00000
     24      17.1449      0.00000
     25      22.0991      0.00000
     26      22.0992      0.00000
     27      25.6938      0.00000
     28      25.6940      0.00000
     29      28.8153      0.00000
     30      28.8153      0.00000
     31      33.3135      0.00000
     32      33.3137      0.00000

 k-point   221 :       0.5000    0.3750    0.5000
  band No.  band energies     occupation 
      1      -7.7764      2.00000
      2      -7.7764      2.00000
      3      -5.9238      2.00000
      4      -5.9238      2.00000
      5      -5.7394      2.00000
      6      -5.7394      2.00000
      7      -5.6109      2.00000
      8      -5.6109      2.00000
      9      -5.3289      2.00000
     10      -5.3288      2.00000
     11      -3.1948      2.00000
     12      -3.1948      2.00000
     13       1.7578      2.00000
     14       1.7579      2.00000
     15       3.0668      2.00000
     16       3.0669      2.00000
     17       5.8911      2.00000
     18       5.8912      2.00000
     19      12.1060      0.00000
     20      12.1061      0.00000
     21      16.3351      0.00000
     22      16.3354      0.00000
     23      18.0660      0.00000
     24      18.0661      0.00000
     25      20.7854      0.00000
     26      20.7854      0.00000
     27      25.7732      0.00000
     28      25.7734      0.00000
     29      29.1267      0.00000
     30      29.1268      0.00000
     31      33.0324      0.00000
     32      33.0325      0.00000

 k-point   222 :      -0.3750    0.3750    0.5000
  band No.  band energies     occupation 
      1      -7.8552      2.00000
      2      -7.8551      2.00000
      3      -5.9083      2.00000
      4      -5.9083      2.00000
      5      -5.7279      2.00000
      6      -5.7279      2.00000
      7      -5.6404      2.00000
      8      -5.6404      2.00000
      9      -5.3607      2.00000
     10      -5.3607      2.00000
     11      -3.6846      2.00000
     12      -3.6846      2.00000
     13       2.6197      2.00000
     14       2.6198      2.00000
     15       3.4129      2.00000
     16       3.4130      2.00000
     17       5.7259      2.00000
     18       5.7260      2.00000
     19      11.8468      0.00000
     20      11.8469      0.00000
     21      16.2870      0.00000
     22      16.2872      0.00000
     23      19.2672      0.00000
     24      19.2672      0.00000
     25      20.0607      0.00000
     26      20.0608      0.00000
     27      25.5356      0.00000
     28      25.5359      0.00000
     29      28.3767      0.00000
     30      28.3767      0.00000
     31      32.6704      0.00000
     32      32.6707      0.00000

 k-point   223 :      -0.2500    0.3750    0.5000
  band No.  band energies     occupation 
      1      -7.8802      2.00000
      2      -7.8802      2.00000
      3      -5.9174      2.00000
      4      -5.9174      2.00000
      5      -5.7436      2.00000
      6      -5.7436      2.00000
      7      -5.6600      2.00000
      8      -5.6599      2.00000
      9      -5.4230      2.00000
     10      -5.4229      2.00000
     11      -4.2775      2.00000
     12      -4.2774      2.00000
     13       2.0070      2.00000
     14       2.0071      2.00000
     15       4.7694      2.00000
     16       4.7695      2.00000
     17       6.2371      2.00000
     18       6.2372      2.00000
     19      12.8816      0.00000
     20      12.8817      0.00000
     21      15.7068      0.00000
     22      15.7069      0.00000
     23      19.2758      0.00000
     24      19.2759      0.00000
     25      20.5061      0.00000
     26      20.5063      0.00000
     27      25.6822      0.00000
     28      25.6825      0.00000
     29      27.9044      0.00000
     30      27.9045      0.00000
     31      32.1332      0.00000
     32      32.1336      0.00000

 k-point   224 :      -0.1250    0.3750    0.5000
  band No.  band energies     occupation 
      1      -7.8391      2.00000
      2      -7.8391      2.00000
      3      -5.9166      2.00000
      4      -5.9166      2.00000
      5      -5.8562      2.00000
      6      -5.8562      2.00000
      7      -5.6045      2.00000
      8      -5.6045      2.00000
      9      -5.4293      2.00000
     10      -5.4293      2.00000
     11      -4.7194      2.00000
     12      -4.7193      2.00000
     13       1.0920      2.00000
     14       1.0920      2.00000
     15       5.9640      2.00000
     16       5.9641      2.00000
     17       6.9841      2.00000
     18       6.9841      2.00000
     19      13.8675      0.00000
     20      13.8677      0.00000
     21      15.7153      0.00000
     22      15.7154      0.00000
     23      18.6191      0.00000
     24      18.6194      0.00000
     25      20.7673      0.00000
     26      20.7673      0.00000
     27      26.5157      0.00000
     28      26.5159      0.00000
     29      28.7085      0.00000
     30      28.7086      0.00000
     31      30.8353      0.00000
     32      30.8357      0.00000

 k-point   225 :       0.0000    0.5000    0.5000
  band No.  band energies     occupation 
      1      -7.5260      2.00000
      2      -7.5259      2.00000
      3      -5.9428      2.00000
      4      -5.9428      2.00000
      5      -5.8140      2.00000
      6      -5.8139      2.00000
      7      -5.5546      2.00000
      8      -5.5546      2.00000
      9      -5.3891      2.00000
     10      -5.3890      2.00000
     11      -4.7931      2.00000
     12      -4.7930      2.00000
     13      -0.2280      2.00000
     14      -0.2279      2.00000
     15       6.3373      2.00000
     16       6.3374      2.00000
     17       7.6795      2.00000
     18       7.6795      2.00000
     19      12.9401      0.00000
     20      12.9403      0.00000
     21      17.3658      0.00000
     22      17.3661      0.00000
     23      18.2129      0.00000
     24      18.2130      0.00000
     25      22.1443      0.00000
     26      22.1444      0.00000
     27      24.1082      0.00000
     28      24.1084      0.00000
     29      30.0534      0.00000
     30      30.0537      0.00000
     31      32.0917      0.00000
     32      32.0921      0.00000

 k-point   226 :       0.1250    0.5000    0.5000
  band No.  band energies     occupation 
      1      -7.5671      2.00000
      2      -7.5671      2.00000
      3      -5.9142      2.00000
      4      -5.9142      2.00000
      5      -5.8508      2.00000
      6      -5.8507      2.00000
      7      -5.5913      2.00000
      8      -5.5913      2.00000
      9      -5.3950      2.00000
     10      -5.3950      2.00000
     11      -4.4920      2.00000
     12      -4.4919      2.00000
     13       0.0134      2.00000
     14       0.0135      2.00000
     15       6.1170      2.00000
     16       6.1171      2.00000
     17       6.9062      2.00000
     18       6.9062      2.00000
     19      13.5801      0.00000
     20      13.5804      0.00000
     21      16.4210      0.00000
     22      16.4211      0.00000
     23      18.3792      0.00000
     24      18.3793      0.00000
     25      21.2560      0.00000
     26      21.2561      0.00000
     27      25.6765      0.00000
     28      25.6767      0.00000
     29      29.1368      0.00000
     30      29.1370      0.00000
     31      31.6970      0.00000
     32      31.6973      0.00000

 k-point   227 :       0.2500    0.5000    0.5000
  band No.  band energies     occupation 
      1      -7.6719      2.00000
      2      -7.6718      2.00000
      3      -5.9464      2.00000
      4      -5.9463      2.00000
      5      -5.7483      2.00000
      6      -5.7483      2.00000
      7      -5.6336      2.00000
      8      -5.6335      2.00000
      9      -5.3895      2.00000
     10      -5.3895      2.00000
     11      -3.8664      2.00000
     12      -3.8663      2.00000
     13       0.7367      2.00000
     14       0.7368      2.00000
     15       4.5663      2.00000
     16       4.5664      2.00000
     17       6.4912      2.00000
     18       6.4912      2.00000
     19      13.6302      0.00000
     20      13.6303      0.00000
     21      15.2733      0.00000
     22      15.2735      0.00000
     23      18.4633      0.00000
     24      18.4635      0.00000
     25      21.4240      0.00000
     26      21.4242      0.00000
     27      25.5198      0.00000
     28      25.5201      0.00000
     29      28.9760      0.00000
     30      28.9760      0.00000
     31      32.5489      0.00000
     32      32.5491      0.00000

 k-point   228 :       0.3750    0.5000    0.5000
  band No.  band energies     occupation 
      1      -7.7764      2.00000
      2      -7.7764      2.00000
      3      -5.9238      2.00000
      4      -5.9238      2.00000
      5      -5.7394      2.00000
      6      -5.7394      2.00000
      7      -5.6109      2.00000
      8      -5.6109      2.00000
      9      -5.3289      2.00000
     10      -5.3288      2.00000
     11      -3.1948      2.00000
     12      -3.1948      2.00000
     13       1.7578      2.00000
     14       1.7579      2.00000
     15       3.0668      2.00000
     16       3.0669      2.00000
     17       5.8911      2.00000
     18       5.8912      2.00000
     19      12.1060      0.00000
     20      12.1061      0.00000
     21      16.3351      0.00000
     22      16.3354      0.00000
     23      18.0660      0.00000
     24      18.0661      0.00000
     25      20.7854      0.00000
     26      20.7854      0.00000
     27      25.7732      0.00000
     28      25.7734      0.00000
     29      29.1267      0.00000
     30      29.1268      0.00000
     31      33.0324      0.00000
     32      33.0325      0.00000

 k-point   229 :       0.5000    0.5000    0.5000
  band No.  band energies     occupation 
      1      -7.8185      2.00000
      2      -7.8184      2.00000
      3      -5.9111      2.00000
      4      -5.9110      2.00000
      5      -5.7336      2.00000
      6      -5.7336      2.00000
      7      -5.6201      2.00000
      8      -5.6201      2.00000
      9      -5.2809      2.00000
     10      -5.2809      2.00000
     11      -2.8527      2.00000
     12      -2.8527      2.00000
     13       1.9253      2.00000
     14       1.9254      2.00000
     15       3.0345      2.00000
     16       3.0345      2.00000
     17       5.2199      2.00000
     18       5.2199      2.00000
     19      11.5983      0.00000
     20      11.5984      0.00000
     21      16.7069      0.00000
     22      16.7071      0.00000
     23      19.0173      0.00000
     24      19.0174      0.00000
     25      19.0756      0.00000
     26      19.0757      0.00000
     27      26.1879      0.00000
     28      26.1881      0.00000
     29      29.4955      0.00000
     30      29.4956      0.00000
     31      33.1425      0.00000
     32      33.1426      0.00000

 k-point   230 :      -0.3750    0.5000    0.5000
  band No.  band energies     occupation 
      1      -7.7764      2.00000
      2      -7.7764      2.00000
      3      -5.9238      2.00000
      4      -5.9238      2.00000
      5      -5.7394      2.00000
      6      -5.7394      2.00000
      7      -5.6109      2.00000
      8      -5.6109      2.00000
      9      -5.3289      2.00000
     10      -5.3288      2.00000
     11      -3.1948      2.00000
     12      -3.1948      2.00000
     13       1.7578      2.00000
     14       1.7579      2.00000
     15       3.0668      2.00000
     16       3.0669      2.00000
     17       5.8911      2.00000
     18       5.8912      2.00000
     19      12.1060      0.00000
     20      12.1061      0.00000
     21      16.3351      0.00000
     22      16.3354      0.00000
     23      18.0660      0.00000
     24      18.0661      0.00000
     25      20.7854      0.00000
     26      20.7854      0.00000
     27      25.7732      0.00000
     28      25.7734      0.00000
     29      29.1267      0.00000
     30      29.1268      0.00000
     31      33.0324      0.00000
     32      33.0325      0.00000

 k-point   231 :      -0.2500    0.5000    0.5000
  band No.  band energies     occupation 
      1      -7.6719      2.00000
      2      -7.6718      2.00000
      3      -5.9464      2.00000
      4      -5.9463      2.00000
      5      -5.7483      2.00000
      6      -5.7483      2.00000
      7      -5.6336      2.00000
      8      -5.6335      2.00000
      9      -5.3895      2.00000
     10      -5.3895      2.00000
     11      -3.8664      2.00000
     12      -3.8663      2.00000
     13       0.7367      2.00000
     14       0.7368      2.00000
     15       4.5663      2.00000
     16       4.5664      2.00000
     17       6.4912      2.00000
     18       6.4912      2.00000
     19      13.6302      0.00000
     20      13.6303      0.00000
     21      15.2733      0.00000
     22      15.2735      0.00000
     23      18.4633      0.00000
     24      18.4635      0.00000
     25      21.4240      0.00000
     26      21.4242      0.00000
     27      25.5198      0.00000
     28      25.5201      0.00000
     29      28.9760      0.00000
     30      28.9760      0.00000
     31      32.5489      0.00000
     32      32.5491      0.00000

 k-point   232 :      -0.1250    0.5000    0.5000
  band No.  band energies     occupation 
      1      -7.5671      2.00000
      2      -7.5671      2.00000
      3      -5.9142      2.00000
      4      -5.9142      2.00000
      5      -5.8508      2.00000
      6      -5.8507      2.00000
      7      -5.5913      2.00000
      8      -5.5913      2.00000
      9      -5.3950      2.00000
     10      -5.3950      2.00000
     11      -4.4920      2.00000
     12      -4.4919      2.00000
     13       0.0134      2.00000
     14       0.0135      2.00000
     15       6.1170      2.00000
     16       6.1171      2.00000
     17       6.9062      2.00000
     18       6.9062      2.00000
     19      13.5801      0.00000
     20      13.5804      0.00000
     21      16.4210      0.00000
     22      16.4211      0.00000
     23      18.3792      0.00000
     24      18.3793      0.00000
     25      21.2560      0.00000
     26      21.2561      0.00000
     27      25.6765      0.00000
     28      25.6767      0.00000
     29      29.1368      0.00000
     30      29.1370      0.00000
     31      31.6970      0.00000
     32      31.6973      0.00000

 k-point   233 :       0.0000   -0.3750    0.5000
  band No.  band energies     occupation 
      1      -7.7339      2.00000
      2      -7.7339      2.00000
      3      -5.9400      2.00000
      4      -5.9400      2.00000
      5      -5.8225      2.00000
      6      -5.8225      2.00000
      7      -5.5620      2.00000
      8      -5.5620      2.00000
      9      -5.4301      2.00000
     10      -5.4301      2.00000
     11      -4.9605      2.00000
     12      -4.9605      2.00000
     13       0.5521      2.00000
     14       0.5522      2.00000
     15       6.1409      2.00000
     16       6.1410      2.00000
     17       7.5822      2.00000
     18       7.5822      2.00000
     19      13.3944      0.00000
     20      13.3946      0.00000
     21      16.9512      0.00000
     22      16.9514      0.00000
     23      18.2365      0.00000
     24      18.2366      0.00000
     25      22.1225      0.00000
     26      22.1226      0.00000
     27      24.9974      0.00000
     28      24.9976      0.00000
     29      29.4791      0.00000
     30      29.4792      0.00000
     31      31.3143      0.00000
     32      31.3145      0.00000

 k-point   234 :       0.1250   -0.3750    0.5000
  band No.  band energies     occupation 
      1      -7.8391      2.00000
      2      -7.8391      2.00000
      3      -5.9166      2.00000
      4      -5.9166      2.00000
      5      -5.8562      2.00000
      6      -5.8562      2.00000
      7      -5.6045      2.00000
      8      -5.6045      2.00000
      9      -5.4293      2.00000
     10      -5.4293      2.00000
     11      -4.7194      2.00000
     12      -4.7193      2.00000
     13       1.0920      2.00000
     14       1.0920      2.00000
     15       5.9640      2.00000
     16       5.9641      2.00000
     17       6.9841      2.00000
     18       6.9841      2.00000
     19      13.8675      0.00000
     20      13.8677      0.00000
     21      15.7153      0.00000
     22      15.7154      0.00000
     23      18.6191      0.00000
     24      18.6194      0.00000
     25      20.7673      0.00000
     26      20.7673      0.00000
     27      26.5157      0.00000
     28      26.5159      0.00000
     29      28.7085      0.00000
     30      28.7086      0.00000
     31      30.8353      0.00000
     32      30.8357      0.00000

 k-point   235 :       0.2500   -0.3750    0.5000
  band No.  band energies     occupation 
      1      -7.8802      2.00000
      2      -7.8802      2.00000
      3      -5.9174      2.00000
      4      -5.9174      2.00000
      5      -5.7436      2.00000
      6      -5.7436      2.00000
      7      -5.6600      2.00000
      8      -5.6599      2.00000
      9      -5.4230      2.00000
     10      -5.4229      2.00000
     11      -4.2775      2.00000
     12      -4.2774      2.00000
     13       2.0070      2.00000
     14       2.0071      2.00000
     15       4.7694      2.00000
     16       4.7695      2.00000
     17       6.2371      2.00000
     18       6.2372      2.00000
     19      12.8816      0.00000
     20      12.8817      0.00000
     21      15.7068      0.00000
     22      15.7069      0.00000
     23      19.2758      0.00000
     24      19.2759      0.00000
     25      20.5061      0.00000
     26      20.5063      0.00000
     27      25.6822      0.00000
     28      25.6825      0.00000
     29      27.9044      0.00000
     30      27.9045      0.00000
     31      32.1332      0.00000
     32      32.1336      0.00000

 k-point   236 :       0.3750   -0.3750    0.5000
  band No.  band energies     occupation 
      1      -7.8552      2.00000
      2      -7.8551      2.00000
      3      -5.9083      2.00000
      4      -5.9083      2.00000
      5      -5.7279      2.00000
      6      -5.7279      2.00000
      7      -5.6404      2.00000
      8      -5.6404      2.00000
      9      -5.3607      2.00000
     10      -5.3607      2.00000
     11      -3.6846      2.00000
     12      -3.6846      2.00000
     13       2.6197      2.00000
     14       2.6198      2.00000
     15       3.4129      2.00000
     16       3.4130      2.00000
     17       5.7259      2.00000
     18       5.7260      2.00000
     19      11.8468      0.00000
     20      11.8469      0.00000
     21      16.2870      0.00000
     22      16.2872      0.00000
     23      19.2672      0.00000
     24      19.2672      0.00000
     25      20.0607      0.00000
     26      20.0608      0.00000
     27      25.5356      0.00000
     28      25.5359      0.00000
     29      28.3767      0.00000
     30      28.3767      0.00000
     31      32.6704      0.00000
     32      32.6707      0.00000

 k-point   237 :       0.5000   -0.3750    0.5000
  band No.  band energies     occupation 
      1      -7.7764      2.00000
      2      -7.7764      2.00000
      3      -5.9238      2.00000
      4      -5.9238      2.00000
      5      -5.7394      2.00000
      6      -5.7394      2.00000
      7      -5.6109      2.00000
      8      -5.6109      2.00000
      9      -5.3289      2.00000
     10      -5.3288      2.00000
     11      -3.1948      2.00000
     12      -3.1948      2.00000
     13       1.7578      2.00000
     14       1.7579      2.00000
     15       3.0668      2.00000
     16       3.0669      2.00000
     17       5.8911      2.00000
     18       5.8912      2.00000
     19      12.1060      0.00000
     20      12.1061      0.00000
     21      16.3351      0.00000
     22      16.3354      0.00000
     23      18.0660      0.00000
     24      18.0661      0.00000
     25      20.7854      0.00000
     26      20.7854      0.00000
     27      25.7732      0.00000
     28      25.7734      0.00000
     29      29.1267      0.00000
     30      29.1268      0.00000
     31      33.0324      0.00000
     32      33.0325      0.00000

 k-point   238 :      -0.3750   -0.3750    0.5000
  band No.  band energies     occupation 
      1      -7.6691      2.00000
      2      -7.6691      2.00000
      3      -5.9359      2.00000
      4      -5.9358      2.00000
      5      -5.7520      2.00000
      6      -5.7520      2.00000
      7      -5.5812      2.00000
      8      -5.5811      2.00000
      9      -5.3882      2.00000
     10      -5.3881      2.00000
     11      -3.4021      2.00000
     12      -3.4021      2.00000
     13       1.4177      2.00000
     14       1.4178      2.00000
     15       2.7486      2.00000
     16       2.7487      2.00000
     17       6.5346      2.00000
     18       6.5346      2.00000
     19      13.3479      0.00000
     20      13.3480      0.00000
     21      16.1438      0.00000
     22      16.1440      0.00000
     23      17.1448      0.00000
     24      17.1449      0.00000
     25      22.0991      0.00000
     26      22.0992      0.00000
     27      25.6938      0.00000
     28      25.6940      0.00000
     29      28.8153      0.00000
     30      28.8153      0.00000
     31      33.3135      0.00000
     32      33.3137      0.00000

 k-point   239 :      -0.2500   -0.3750    0.5000
  band No.  band energies     occupation 
      1      -7.5930      2.00000
      2      -7.5930      2.00000
      3      -5.9236      2.00000
      4      -5.9236      2.00000
      5      -5.7425      2.00000
      6      -5.7425      2.00000
      7      -5.6194      2.00000
      8      -5.6194      2.00000
      9      -5.4468      2.00000
     10      -5.4467      2.00000
     11      -4.1301      2.00000
     12      -4.1301      2.00000
     13       0.8179      2.00000
     14       0.8180      2.00000
     15       4.0875      2.00000
     16       4.0876      2.00000
     17       6.7253      2.00000
     18       6.7254      2.00000
     19      14.7342      0.00000
     20      14.7343      0.00000
     21      15.6187      0.00000
     22      15.6187      0.00000
     23      17.7756      0.00000
     24      17.7758      0.00000
     25      22.3792      0.00000
     26      22.3793      0.00000
     27      25.4333      0.00000
     28      25.4335      0.00000
     29      28.7987      0.00000
     30      28.7987      0.00000
     31      32.8096      0.00000
     32      32.8098      0.00000

 k-point   240 :      -0.1250   -0.3750    0.5000
  band No.  band energies     occupation 
      1      -7.6200      2.00000
      2      -7.6200      2.00000
      3      -5.9069      2.00000
      4      -5.9068      2.00000
      5      -5.7856      2.00000
      6      -5.7856      2.00000
      7      -5.5958      2.00000
      8      -5.5958      2.00000
      9      -5.4549      2.00000
     10      -5.4549      2.00000
     11      -4.7612      2.00000
     12      -4.7611      2.00000
     13       0.4679      2.00000
     14       0.4680      2.00000
     15       5.8063      2.00000
     16       5.8064      2.00000
     17       6.8038      2.00000
     18       6.8038      2.00000
     19      13.9757      0.00000
     20      13.9759      0.00000
     21      16.8456      0.00000
     22      16.8457      0.00000
     23      18.3330      0.00000
     24      18.3332      0.00000
     25      22.3443      0.00000
     26      22.3444      0.00000
     27      24.9939      0.00000
     28      24.9941      0.00000
     29      29.1165      0.00000
     30      29.1168      0.00000
     31      30.9071      0.00000
     32      30.9073      0.00000

 k-point   241 :      -0.0000   -0.2500    0.5000
  band No.  band energies     occupation 
      1      -8.2345      2.00000
      2      -8.2344      2.00000
      3      -5.9363      2.00000
      4      -5.9363      2.00000
      5      -5.7888      2.00000
      6      -5.7888      2.00000
      7      -5.6152      2.00000
      8      -5.6151      2.00000
      9      -5.4775      2.00000
     10      -5.4774      2.00000
     11      -5.1787      2.00000
     12      -5.1787      2.00000
     13       2.2568      2.00000
     14       2.2569      2.00000
     15       5.8010      2.00000
     16       5.8011      2.00000
     17       7.3826      2.00000
     18       7.3826      2.00000
     19      14.1280      0.00000
     20      14.1281      0.00000
     21      16.1473      0.00000
     22      16.1474      0.00000
     23      18.5233      0.00000
     24      18.5234      0.00000
     25      22.3841      0.00000
     26      22.3842      0.00000
     27      25.8503      0.00000
     28      25.8503      0.00000
     29      27.7140      0.00000
     30      27.7140      0.00000
     31      31.6241      0.00000
     32      31.6243      0.00000

 k-point   242 :       0.1250   -0.2500    0.5000
  band No.  band energies     occupation 
      1      -8.2822      2.00000
      2      -8.2822      2.00000
      3      -5.8880      2.00000
      4      -5.8880      2.00000
      5      -5.7953      2.00000
      6      -5.7953      2.00000
      7      -5.6657      2.00000
      8      -5.6657      2.00000
      9      -5.4913      2.00000
     10      -5.4913      2.00000
     11      -5.0343      2.00000
     12      -5.0343      2.00000
     13       2.9313      2.00000
     14       2.9314      2.00000
     15       5.4660      2.00000
     16       5.4660      2.00000
     17       6.9696      2.00000
     18       6.9696      2.00000
     19      14.2543      0.00000
     20      14.2543      0.00000
     21      15.5399      0.00000
     22      15.5401      0.00000
     23      19.2024      0.00000
     24      19.2025      0.00000
     25      20.4712      0.00000
     26      20.4713      0.00000
     27      25.7967      0.00000
     28      25.7967      0.00000
     29      27.8902      0.00000
     30      27.8904      0.00000
     31      31.6988      0.00000
     32      31.6992      0.00000

 k-point   243 :       0.2500   -0.2500    0.5000
  band No.  band energies     occupation 
      1      -8.1274      2.00000
      2      -8.1273      2.00000
      3      -5.8630      2.00000
      4      -5.8629      2.00000
      5      -5.7568      2.00000
      6      -5.7568      2.00000
      7      -5.6938      2.00000
      8      -5.6937      2.00000
      9      -5.4901      2.00000
     10      -5.4900      2.00000
     11      -4.7457      2.00000
     12      -4.7456      2.00000
     13       3.5326      2.00000
     14       3.5326      2.00000
     15       4.3837      2.00000
     16       4.3838      2.00000
     17       6.4329      2.00000
     18       6.4330      2.00000
     19      13.3519      0.00000
     20      13.3520      0.00000
     21      15.8693      0.00000
     22      15.8695      0.00000
     23      19.5831      0.00000
     24      19.5832      0.00000
     25      20.0992      0.00000
     26      20.0995      0.00000
     27      26.0877      0.00000
     28      26.0879      0.00000
     29      26.6283      0.00000
     30      26.6287      0.00000
     31      32.0647      0.00000
     32      32.0652      0.00000

 k-point   244 :       0.3750   -0.2500    0.5000
  band No.  band energies     occupation 
      1      -7.8802      2.00000
      2      -7.8802      2.00000
      3      -5.9174      2.00000
      4      -5.9174      2.00000
      5      -5.7436      2.00000
      6      -5.7436      2.00000
      7      -5.6600      2.00000
      8      -5.6599      2.00000
      9      -5.4230      2.00000
     10      -5.4229      2.00000
     11      -4.2775      2.00000
     12      -4.2774      2.00000
     13       2.0070      2.00000
     14       2.0071      2.00000
     15       4.7694      2.00000
     16       4.7695      2.00000
     17       6.2371      2.00000
     18       6.2372      2.00000
     19      12.8816      0.00000
     20      12.8817      0.00000
     21      15.7068      0.00000
     22      15.7069      0.00000
     23      19.2758      0.00000
     24      19.2759      0.00000
     25      20.5061      0.00000
     26      20.5063      0.00000
     27      25.6822      0.00000
     28      25.6825      0.00000
     29      27.9044      0.00000
     30      27.9045      0.00000
     31      32.1332      0.00000
     32      32.1336      0.00000

 k-point   245 :       0.5000   -0.2500    0.5000
  band No.  band energies     occupation 
      1      -7.6719      2.00000
      2      -7.6718      2.00000
      3      -5.9464      2.00000
      4      -5.9463      2.00000
      5      -5.7483      2.00000
      6      -5.7483      2.00000
      7      -5.6336      2.00000
      8      -5.6335      2.00000
      9      -5.3895      2.00000
     10      -5.3895      2.00000
     11      -3.8664      2.00000
     12      -3.8663      2.00000
     13       0.7367      2.00000
     14       0.7368      2.00000
     15       4.5663      2.00000
     16       4.5664      2.00000
     17       6.4912      2.00000
     18       6.4912      2.00000
     19      13.6302      0.00000
     20      13.6303      0.00000
     21      15.2733      0.00000
     22      15.2735      0.00000
     23      18.4633      0.00000
     24      18.4635      0.00000
     25      21.4240      0.00000
     26      21.4242      0.00000
     27      25.5198      0.00000
     28      25.5201      0.00000
     29      28.9760      0.00000
     30      28.9760      0.00000
     31      32.5489      0.00000
     32      32.5491      0.00000

 k-point   246 :      -0.3750   -0.2500    0.5000
  band No.  band energies     occupation 
      1      -7.5930      2.00000
      2      -7.5930      2.00000
      3      -5.9236      2.00000
      4      -5.9236      2.00000
      5      -5.7425      2.00000
      6      -5.7425      2.00000
      7      -5.6194      2.00000
      8      -5.6194      2.00000
      9      -5.4468      2.00000
     10      -5.4467      2.00000
     11      -4.1301      2.00000
     12      -4.1301      2.00000
     13       0.8179      2.00000
     14       0.8180      2.00000
     15       4.0875      2.00000
     16       4.0876      2.00000
     17       6.7253      2.00000
     18       6.7254      2.00000
     19      14.7342      0.00000
     20      14.7343      0.00000
     21      15.6187      0.00000
     22      15.6187      0.00000
     23      17.7756      0.00000
     24      17.7758      0.00000
     25      22.3792      0.00000
     26      22.3793      0.00000
     27      25.4333      0.00000
     28      25.4335      0.00000
     29      28.7987      0.00000
     30      28.7987      0.00000
     31      32.8096      0.00000
     32      32.8098      0.00000

 k-point   247 :      -0.2500   -0.2500    0.5000
  band No.  band energies     occupation 
      1      -7.7095      2.00000
      2      -7.7094      2.00000
      3      -5.8744      2.00000
      4      -5.8743      2.00000
      5      -5.7063      2.00000
      6      -5.7063      2.00000
      7      -5.6529      2.00000
      8      -5.6528      2.00000
      9      -5.5423      2.00000
     10      -5.5423      2.00000
     11      -4.7386      2.00000
     12      -4.7385      2.00000
     13       1.5136      2.00000
     14       1.5136      2.00000
     15       4.4657      2.00000
     16       4.4657      2.00000
     17       6.5637      2.00000
     18       6.5637      2.00000
     19      15.1611      0.00000
     20      15.1612      0.00000
     21      16.5630      0.00000
     22      16.5631      0.00000
     23      17.6402      0.00000
     24      17.6403      0.00000
     25      23.1342      0.00000
     26      23.1343      0.00000
     27      25.2250      0.00000
     28      25.2251      0.00000
     29      28.8943      0.00000
     30      28.8944      0.00000
     31      31.3743      0.00000
     32      31.3745      0.00000

 k-point   248 :      -0.1250   -0.2500    0.5000
  band No.  band energies     occupation 
      1      -7.9893      2.00000
      2      -7.9893      2.00000
      3      -5.8939      2.00000
      4      -5.8939      2.00000
      5      -5.7631      2.00000
      6      -5.7631      2.00000
      7      -5.6034      2.00000
      8      -5.6034      2.00000
      9      -5.5477      2.00000
     10      -5.5477      2.00000
     11      -5.1006      2.00000
     12      -5.1005      2.00000
     13       1.8617      2.00000
     14       1.8618      2.00000
     15       5.7416      2.00000
     16       5.7417      2.00000
     17       6.4748      2.00000
     18       6.4748      2.00000
     19      14.8174      0.00000
     20      14.8175      0.00000
     21      16.5779      0.00000
     22      16.5780      0.00000
     23      18.0486      0.00000
     24      18.0487      0.00000
     25      23.7515      0.00000
     26      23.7516      0.00000
     27      25.4402      0.00000
     28      25.4403      0.00000
     29      28.3998      0.00000
     30      28.3999      0.00000
     31      29.8047      0.00000
     32      29.8048      0.00000

 k-point   249 :      -0.0000   -0.1250    0.5000
  band No.  band energies     occupation 
      1      -8.6979      2.00000
      2      -8.6978      2.00000
      3      -5.9202      2.00000
      4      -5.9202      2.00000
      5      -5.7614      2.00000
      6      -5.7614      2.00000
      7      -5.6238      2.00000
      8      -5.6237      2.00000
      9      -5.4932      2.00000
     10      -5.4932      2.00000
     11      -5.3276      2.00000
     12      -5.3275      2.00000
     13       3.7376      2.00000
     14       3.7376      2.00000
     15       5.7998      2.00000
     16       5.7998      2.00000
     17       7.3612      2.00000
     18       7.3613      2.00000
     19      13.3807      0.00000
     20      13.3808      0.00000
     21      16.7503      0.00000
     22      16.7505      0.00000
     23      18.6675      0.00000
     24      18.6676      0.00000
     25      22.3436      0.00000
     26      22.3438      0.00000
     27      24.9963      0.00000
     28      24.9963      0.00000
     29      28.4926      0.00000
     30      28.4927      0.00000
     31      31.5565      0.00000
     32      31.5566      0.00000

 k-point   250 :       0.1250   -0.1250    0.5000
  band No.  band energies     occupation 
      1      -8.6307      2.00000
      2      -8.6306      2.00000
      3      -5.8666      2.00000
      4      -5.8665      2.00000
      5      -5.7883      2.00000
      6      -5.7883      2.00000
      7      -5.6594      2.00000
      8      -5.6593      2.00000
      9      -5.5150      2.00000
     10      -5.5149      2.00000
     11      -5.2328      2.00000
     12      -5.2328      2.00000
     13       4.0342      2.00000
     14       4.0342      2.00000
     15       5.4866      2.00000
     16       5.4867      2.00000
     17       7.0495      2.00000
     18       7.0495      2.00000
     19      13.6662      0.00000
     20      13.6663      0.00000
     21      16.4178      0.00000
     22      16.4180      0.00000
     23      19.2763      0.00000
     24      19.2764      0.00000
     25      20.6769      0.00000
     26      20.6772      0.00000
     27      24.8542      0.00000
     28      24.8544      0.00000
     29      28.4349      0.00000
     30      28.4351      0.00000
     31      32.4279      0.00000
     32      32.4281      0.00000

 k-point   251 :       0.2500   -0.1250    0.5000
  band No.  band energies     occupation 
      1      -8.2822      2.00000
      2      -8.2822      2.00000
      3      -5.8880      2.00000
      4      -5.8880      2.00000
      5      -5.7953      2.00000
      6      -5.7953      2.00000
      7      -5.6657      2.00000
      8      -5.6657      2.00000
      9      -5.4913      2.00000
     10      -5.4913      2.00000
     11      -5.0343      2.00000
     12      -5.0343      2.00000
     13       2.9313      2.00000
     14       2.9314      2.00000
     15       5.4660      2.00000
     16       5.4660      2.00000
     17       6.9696      2.00000
     18       6.9696      2.00000
     19      14.2543      0.00000
     20      14.2543      0.00000
     21      15.5399      0.00000
     22      15.5401      0.00000
     23      19.2024      0.00000
     24      19.2025      0.00000
     25      20.4712      0.00000
     26      20.4713      0.00000
     27      25.7967      0.00000
     28      25.7967      0.00000
     29      27.8902      0.00000
     30      27.8904      0.00000
     31      31.6988      0.00000
     32      31.6992      0.00000

 k-point   252 :       0.3750   -0.1250    0.5000
  band No.  band energies     occupation 
      1      -7.8391      2.00000
      2      -7.8391      2.00000
      3      -5.9166      2.00000
      4      -5.9166      2.00000
      5      -5.8562      2.00000
      6      -5.8562      2.00000
      7      -5.6045      2.00000
      8      -5.6045      2.00000
      9      -5.4293      2.00000
     10      -5.4293      2.00000
     11      -4.7194      2.00000
     12      -4.7193      2.00000
     13       1.0920      2.00000
     14       1.0920      2.00000
     15       5.9640      2.00000
     16       5.9641      2.00000
     17       6.9841      2.00000
     18       6.9841      2.00000
     19      13.8675      0.00000
     20      13.8677      0.00000
     21      15.7153      0.00000
     22      15.7154      0.00000
     23      18.6191      0.00000
     24      18.6194      0.00000
     25      20.7673      0.00000
     26      20.7673      0.00000
     27      26.5157      0.00000
     28      26.5159      0.00000
     29      28.7085      0.00000
     30      28.7086      0.00000
     31      30.8353      0.00000
     32      30.8357      0.00000

 k-point   253 :       0.5000   -0.1250    0.5000
  band No.  band energies     occupation 
      1      -7.5671      2.00000
      2      -7.5671      2.00000
      3      -5.9142      2.00000
      4      -5.9142      2.00000
      5      -5.8508      2.00000
      6      -5.8507      2.00000
      7      -5.5913      2.00000
      8      -5.5913      2.00000
      9      -5.3950      2.00000
     10      -5.3950      2.00000
     11      -4.4920      2.00000
     12      -4.4919      2.00000
     13       0.0134      2.00000
     14       0.0135      2.00000
     15       6.1170      2.00000
     16       6.1171      2.00000
     17       6.9062      2.00000
     18       6.9062      2.00000
     19      13.5801      0.00000
     20      13.5804      0.00000
     21      16.4210      0.00000
     22      16.4211      0.00000
     23      18.3792      0.00000
     24      18.3793      0.00000
     25      21.2560      0.00000
     26      21.2561      0.00000
     27      25.6765      0.00000
     28      25.6767      0.00000
     29      29.1368      0.00000
     30      29.1370      0.00000
     31      31.6970      0.00000
     32      31.6973      0.00000

 k-point   254 :      -0.3750   -0.1250    0.5000
  band No.  band energies     occupation 
      1      -7.6200      2.00000
      2      -7.6200      2.00000
      3      -5.9069      2.00000
      4      -5.9068      2.00000
      5      -5.7856      2.00000
      6      -5.7856      2.00000
      7      -5.5958      2.00000
      8      -5.5958      2.00000
      9      -5.4549      2.00000
     10      -5.4549      2.00000
     11      -4.7612      2.00000
     12      -4.7611      2.00000
     13       0.4679      2.00000
     14       0.4680      2.00000
     15       5.8063      2.00000
     16       5.8064      2.00000
     17       6.8038      2.00000
     18       6.8038      2.00000
     19      13.9757      0.00000
     20      13.9759      0.00000
     21      16.8456      0.00000
     22      16.8457      0.00000
     23      18.3330      0.00000
     24      18.3332      0.00000
     25      22.3443      0.00000
     26      22.3444      0.00000
     27      24.9939      0.00000
     28      24.9941      0.00000
     29      29.1165      0.00000
     30      29.1168      0.00000
     31      30.9071      0.00000
     32      30.9073      0.00000

 k-point   255 :      -0.2500   -0.1250    0.5000
  band No.  band energies     occupation 
      1      -7.9893      2.00000
      2      -7.9893      2.00000
      3      -5.8939      2.00000
      4      -5.8939      2.00000
      5      -5.7631      2.00000
      6      -5.7631      2.00000
      7      -5.6034      2.00000
      8      -5.6034      2.00000
      9      -5.5477      2.00000
     10      -5.5477      2.00000
     11      -5.1006      2.00000
     12      -5.1005      2.00000
     13       1.8617      2.00000
     14       1.8618      2.00000
     15       5.7416      2.00000
     16       5.7417      2.00000
     17       6.4748      2.00000
     18       6.4748      2.00000
     19      14.8174      0.00000
     20      14.8175      0.00000
     21      16.5779      0.00000
     22      16.5780      0.00000
     23      18.0486      0.00000
     24      18.0487      0.00000
     25      23.7515      0.00000
     26      23.7516      0.00000
     27      25.4402      0.00000
     28      25.4403      0.00000
     29      28.3998      0.00000
     30      28.3999      0.00000
     31      29.8047      0.00000
     32      29.8048      0.00000

 k-point   256 :      -0.1250   -0.1250    0.5000
  band No.  band energies     occupation 
      1      -8.4441      2.00000
      2      -8.4440      2.00000
      3      -5.9176      2.00000
      4      -5.9176      2.00000
      5      -5.7708      2.00000
      6      -5.7707      2.00000
      7      -5.6112      2.00000
      8      -5.6111      2.00000
      9      -5.5210      2.00000
     10      -5.5210      2.00000
     11      -5.2732      2.00000
     12      -5.2732      2.00000
     13       3.0762      2.00000
     14       3.0763      2.00000
     15       5.9729      2.00000
     16       5.9729      2.00000
     17       6.5949      2.00000
     18       6.5950      2.00000
     19      14.4484      0.00000
     20      14.4484      0.00000
     21      16.5382      0.00000
     22      16.5384      0.00000
     23      18.0754      0.00000
     24      18.0755      0.00000
     25      24.1016      0.00000
     26      24.1017      0.00000
     27      25.5154      0.00000
     28      25.5155      0.00000
     29      27.8801      0.00000
     30      27.8801      0.00000
     31      30.7572      0.00000
     32      30.7573      0.00000

 k-point   257 :       0.0000   -0.0000   -0.3333
  band No.  band energies     occupation 
      1      -9.3170      2.00000
      2      -8.4984      2.00000
      3      -5.9505      2.00000
      4      -5.8889      2.00000
      5      -5.8777      2.00000
      6      -5.6629      2.00000
      7      -5.5864      2.00000
      8      -5.5824      2.00000
      9      -5.5598      2.00000
     10      -5.4381      2.00000
     11      -5.4339      2.00000
     12      -5.0219      2.00000
     13       2.3434      2.00000
     14       5.5219      2.00000
     15       5.8029      2.00000
     16       6.5231      2.00000
     17       7.2871      2.00000
     18       7.9462      2.00000
     19      11.9791      0.00000
     20      12.5481      0.00000
     21      17.5680      0.00000
     22      18.0145      0.00000
     23      18.0382      0.00000
     24      19.9232      0.00000
     25      21.9837      0.00000
     26      22.1873      0.00000
     27      23.5412      0.00000
     28      26.1236      0.00000
     29      28.4978      0.00000
     30      28.8185      0.00000
     31      29.1208      0.00000
     32      31.3831      0.00000

 k-point   258 :       0.1250   -0.0000   -0.3333
  band No.  band energies     occupation 
      1      -9.1132      2.00000
      2      -8.3546      2.00000
      3      -5.9508      2.00000
      4      -5.8941      2.00000
      5      -5.8495      2.00000
      6      -5.6700      2.00000
      7      -5.6214      2.00000
      8      -5.5944      2.00000
      9      -5.5495      2.00000
     10      -5.4700      2.00000
     11      -5.4347      2.00000
     12      -4.9024      2.00000
     13       2.3249      2.00000
     14       4.8648      2.00000
     15       4.9632      2.00000
     16       6.7147      2.00000
     17       7.0581      2.00000
     18       7.7377      2.00000
     19      12.8847      0.00000
     20      13.0955      0.00000
     21      17.2047      0.00000
     22      17.5163      0.00000
     23      18.2743      0.00000
     24      19.3035      0.00000
     25      22.3129      0.00000
     26      22.5475      0.00000
     27      23.9184      0.00000
     28      25.9191      0.00000
     29      26.7091      0.00000
     30      29.8972      0.00000
     31      30.5288      0.00000
     32      31.9187      0.00000

 k-point   259 :       0.2500    0.0000   -0.3333
  band No.  band energies     occupation 
      1      -8.5655      2.00000
      2      -7.9968      2.00000
      3      -5.9620      2.00000
      4      -5.9051      2.00000
      5      -5.8166      2.00000
      6      -5.7160      2.00000
      7      -5.6369      2.00000
      8      -5.5992      2.00000
      9      -5.5228      2.00000
     10      -5.4514      2.00000
     11      -5.4120      2.00000
     12      -4.6736      2.00000
     13       1.6098      2.00000
     14       3.0394      2.00000
     15       4.2790      2.00000
     16       6.8102      2.00000
     17       7.1211      2.00000
     18       7.7185      2.00000
     19      13.4582      0.00000
     20      14.4000      0.00000
     21      16.1289      0.00000
     22      17.1013      0.00000
     23      18.3308      0.00000
     24      18.8615      0.00000
     25      22.1984      0.00000
     26      22.7157      0.00000
     27      24.4647      0.00000
     28      26.5667      0.00000
     29      27.0644      0.00000
     30      28.9607      0.00000
     31      30.4234      0.00000
     32      32.1397      0.00000

 k-point   260 :       0.3750    0.0000   -0.3333
  band No.  band energies     occupation 
      1      -7.9199      2.00000
      2      -7.6406      2.00000
      3      -5.9506      2.00000
      4      -5.9018      2.00000
      5      -5.8243      2.00000
      6      -5.7899      2.00000
      7      -5.6008      2.00000
      8      -5.5631      2.00000
      9      -5.4450      2.00000
     10      -5.4342      2.00000
     11      -5.2233      2.00000
     12      -4.5078      2.00000
     13       0.2561      2.00000
     14       1.1879      2.00000
     15       4.7987      2.00000
     16       6.5663      2.00000
     17       7.3176      2.00000
     18       7.8533      2.00000
     19      13.2270      0.00000
     20      14.3587      0.00000
     21      16.3954      0.00000
     22      17.5887      0.00000
     23      17.8467      0.00000
     24      18.5085      0.00000
     25      22.1199      0.00000
     26      22.4319      0.00000
     27      23.9326      0.00000
     28      26.4068      0.00000
     29      28.4368      0.00000
     30      29.4282      0.00000
     31      30.4934      0.00000
     32      31.2733      0.00000

 k-point   261 :       0.5000    0.0000   -0.3333
  band No.  band energies     occupation 
      1      -7.6096      2.00000
      2      -7.5197      2.00000
      3      -5.9425      2.00000
      4      -5.9018      2.00000
      5      -5.8077      2.00000
      6      -5.8020      2.00000
      7      -5.5899      2.00000
      8      -5.5635      2.00000
      9      -5.4251      2.00000
     10      -5.4010      2.00000
     11      -4.8064      2.00000
     12      -4.7006      2.00000
     13      -0.1590      2.00000
     14       0.1785      2.00000
     15       5.4775      2.00000
     16       6.0536      2.00000
     17       7.4384      2.00000
     18       7.8980      2.00000
     19      13.3471      0.00000
     20      13.6333      0.00000
     21      17.2920      0.00000
     22      17.3132      0.00000
     23      18.0706      0.00000
     24      18.2649      0.00000
     25      21.8950      0.00000
     26      22.3842      0.00000
     27      23.9366      0.00000
     28      25.0071      0.00000
     29      28.9261      0.00000
     30      30.3524      0.00000
     31      30.9298      0.00000
     32      31.6922      0.00000

 k-point   262 :      -0.3750   -0.0000   -0.3333
  band No.  band energies     occupation 
      1      -7.9199      2.00000
      2      -7.6407      2.00000
      3      -5.9506      2.00000
      4      -5.9018      2.00000
      5      -5.8243      2.00000
      6      -5.7899      2.00000
      7      -5.6008      2.00000
      8      -5.5631      2.00000
      9      -5.4450      2.00000
     10      -5.4342      2.00000
     11      -5.2233      2.00000
     12      -4.5078      2.00000
     13       0.2560      2.00000
     14       1.1879      2.00000
     15       4.7987      2.00000
     16       6.5663      2.00000
     17       7.3176      2.00000
     18       7.8533      2.00000
     19      13.2268      0.00000
     20      14.3589      0.00000
     21      16.3955      0.00000
     22      17.5886      0.00000
     23      17.8466      0.00000
     24      18.5085      0.00000
     25      22.1200      0.00000
     26      22.4319      0.00000
     27      23.9327      0.00000
     28      26.4067      0.00000
     29      28.4368      0.00000
     30      29.4283      0.00000
     31      30.4934      0.00000
     32      31.2729      0.00000

 k-point   263 :      -0.2500   -0.0000   -0.3333
  band No.  band energies     occupation 
      1      -8.5654      2.00000
      2      -7.9968      2.00000
      3      -5.9620      2.00000
      4      -5.9051      2.00000
      5      -5.8166      2.00000
      6      -5.7160      2.00000
      7      -5.6370      2.00000
      8      -5.5992      2.00000
      9      -5.5227      2.00000
     10      -5.4514      2.00000
     11      -5.4120      2.00000
     12      -4.6736      2.00000
     13       1.6097      2.00000
     14       3.0394      2.00000
     15       4.2790      2.00000
     16       6.8102      2.00000
     17       7.1211      2.00000
     18       7.7185      2.00000
     19      13.4582      0.00000
     20      14.4000      0.00000
     21      16.1291      0.00000
     22      17.1012      0.00000
     23      18.3307      0.00000
     24      18.8614      0.00000
     25      22.1984      0.00000
     26      22.7158      0.00000
     27      24.4648      0.00000
     28      26.5667      0.00000
     29      27.0644      0.00000
     30      28.9606      0.00000
     31      30.4234      0.00000
     32      32.1393      0.00000

 k-point   264 :      -0.1250   -0.0000   -0.3333
  band No.  band energies     occupation 
      1      -9.1132      2.00000
      2      -8.3546      2.00000
      3      -5.9508      2.00000
      4      -5.8940      2.00000
      5      -5.8495      2.00000
      6      -5.6700      2.00000
      7      -5.6214      2.00000
      8      -5.5944      2.00000
      9      -5.5495      2.00000
     10      -5.4700      2.00000
     11      -5.4347      2.00000
     12      -4.9024      2.00000
     13       2.3249      2.00000
     14       4.8648      2.00000
     15       4.9633      2.00000
     16       6.7147      2.00000
     17       7.0581      2.00000
     18       7.7377      2.00000
     19      12.8847      0.00000
     20      13.0956      0.00000
     21      17.2047      0.00000
     22      17.5164      0.00000
     23      18.2743      0.00000
     24      19.3035      0.00000
     25      22.3130      0.00000
     26      22.5473      0.00000
     27      23.9183      0.00000
     28      25.9192      0.00000
     29      26.7092      0.00000
     30      29.8972      0.00000
     31      30.5288      0.00000
     32      31.9186      0.00000

 k-point   265 :       0.0000    0.1250   -0.3333
  band No.  band energies     occupation 
      1      -9.1132      2.00000
      2      -8.3546      2.00000
      3      -5.9508      2.00000
      4      -5.8940      2.00000
      5      -5.8495      2.00000
      6      -5.6700      2.00000
      7      -5.6214      2.00000
      8      -5.5944      2.00000
      9      -5.5495      2.00000
     10      -5.4700      2.00000
     11      -5.4347      2.00000
     12      -4.9024      2.00000
     13       2.3249      2.00000
     14       4.8648      2.00000
     15       4.9633      2.00000
     16       6.7147      2.00000
     17       7.0581      2.00000
     18       7.7377      2.00000
     19      12.8847      0.00000
     20      13.0956      0.00000
     21      17.2047      0.00000
     22      17.5164      0.00000
     23      18.2743      0.00000
     24      19.3035      0.00000
     25      22.3130      0.00000
     26      22.5473      0.00000
     27      23.9183      0.00000
     28      25.9192      0.00000
     29      26.7092      0.00000
     30      29.8972      0.00000
     31      30.5288      0.00000
     32      31.9186      0.00000

 k-point   266 :       0.1250    0.1250   -0.3333
  band No.  band energies     occupation 
      1      -8.8222      2.00000
      2      -8.1510      2.00000
      3      -5.9420      2.00000
      4      -5.8867      2.00000
      5      -5.8482      2.00000
      6      -5.6656      2.00000
      7      -5.6163      2.00000
      8      -5.6136      2.00000
      9      -5.5315      2.00000
     10      -5.5034      2.00000
     11      -5.4600      2.00000
     12      -4.8112      2.00000
     13       2.1046      2.00000
     14       4.0001      2.00000
     15       4.7235      2.00000
     16       6.0759      2.00000
     17       7.0811      2.00000
     18       7.0855      2.00000
     19      13.7725      0.00000
     20      14.2577      0.00000
     21      17.2331      0.00000
     22      17.2947      0.00000
     23      17.9563      0.00000
     24      18.3636      0.00000
     25      23.6932      0.00000
     26      23.9565      0.00000
     27      25.2497      0.00000
     28      25.3479      0.00000
     29      27.1322      0.00000
     30      29.2813      0.00000
     31      29.9469      0.00000
     32      31.0766      0.00000

 k-point   267 :       0.2500    0.1250   -0.3333
  band No.  band energies     occupation 
      1      -8.2628      2.00000
      2      -7.8150      2.00000
      3      -5.9035      2.00000
      4      -5.8671      2.00000
      5      -5.7930      2.00000
      6      -5.7099      2.00000
      7      -5.6339      2.00000
      8      -5.5973      2.00000
      9      -5.5768      2.00000
     10      -5.5022      2.00000
     11      -5.3694      2.00000
     12      -4.5925      2.00000
     13       1.3539      2.00000
     14       2.5874      2.00000
     15       4.5351      2.00000
     16       5.6868      2.00000
     17       6.5012      2.00000
     18       7.0953      2.00000
     19      14.1393      0.00000
     20      15.7077      0.00000
     21      16.2768      0.00000
     22      17.4383      0.00000
     23      17.7734      0.00000
     24      18.4325      0.00000
     25      23.1354      0.00000
     26      23.8025      0.00000
     27      24.0158      0.00000
     28      27.2862      0.00000
     29      28.1022      0.00000
     30      28.6691      0.00000
     31      29.0085      0.00000
     32      31.0793      0.00000

 k-point   268 :       0.3750    0.1250   -0.3333
  band No.  band energies     occupation 
      1      -7.7495      2.00000
      2      -7.5754      2.00000
      3      -5.9172      2.00000
      4      -5.8588      2.00000
      5      -5.7900      2.00000
      6      -5.7633      2.00000
      7      -5.6536      2.00000
      8      -5.5490      2.00000
      9      -5.4923      2.00000
     10      -5.4337      2.00000
     11      -5.0360      2.00000
     12      -4.3761      2.00000
     13       0.2866      2.00000
     14       1.0311      2.00000
     15       4.8776      2.00000
     16       6.1060      2.00000
     17       6.3571      2.00000
     18       6.9261      2.00000
     19      13.8597      0.00000
     20      14.9499      0.00000
     21      16.4540      0.00000
     22      17.4110      0.00000
     23      17.9493      0.00000
     24      18.7209      0.00000
     25      21.2670      0.00000
     26      23.0145      0.00000
     27      24.1701      0.00000
     28      26.4767      0.00000
     29      28.4704      0.00000
     30      29.7035      0.00000
     31      30.6704      0.00000
     32      31.2176      0.00000

 k-point   269 :       0.5000    0.1250   -0.3333
  band No.  band energies     occupation 
      1      -7.6502      2.00000
      2      -7.5614      2.00000
      3      -5.9256      2.00000
      4      -5.8711      2.00000
      5      -5.8473      2.00000
      6      -5.8236      2.00000
      7      -5.6450      2.00000
      8      -5.5379      2.00000
      9      -5.4463      2.00000
     10      -5.3866      2.00000
     11      -4.5878      2.00000
     12      -4.3592      2.00000
     13       0.0371      2.00000
     14       0.4417      2.00000
     15       5.3809      2.00000
     16       5.8601      2.00000
     17       6.7441      2.00000
     18       7.0641      2.00000
     19      13.8734      0.00000
     20      14.0754      0.00000
     21      16.1079      0.00000
     22      16.8167      0.00000
     23      18.0649      0.00000
     24      18.6377      0.00000
     25      20.5236      0.00000
     26      22.2818      0.00000
     27      25.0569      0.00000
     28      26.0523      0.00000
     29      28.8077      0.00000
     30      29.8266      0.00000
     31      31.3199      0.00000
     32      31.9699      0.00000

 k-point   270 :      -0.3750    0.1250   -0.3333
  band No.  band energies     occupation 
      1      -8.0367      2.00000
      2      -7.7331      2.00000
      3      -5.9349      2.00000
      4      -5.8869      2.00000
      5      -5.8592      2.00000
      6      -5.8017      2.00000
      7      -5.6545      2.00000
      8      -5.5537      2.00000
      9      -5.4672      2.00000
     10      -5.4191      2.00000
     11      -5.0196      2.00000
     12      -4.2306      2.00000
     13       0.7155      2.00000
     14       1.7419      2.00000
     15       4.6506      2.00000
     16       6.3728      2.00000
     17       6.9302      2.00000
     18       7.2170      2.00000
     19      13.7304      0.00000
     20      14.4704      0.00000
     21      15.1562      0.00000
     22      16.3150      0.00000
     23      18.2800      0.00000
     24      18.7578      0.00000
     25      20.9887      0.00000
     26      21.1874      0.00000
     27      25.8418      0.00000
     28      26.4039      0.00000
     29      27.8815      0.00000
     30      29.4986      0.00000
     31      31.2076      0.00000
     32      31.7229      0.00000

 k-point   271 :      -0.2500    0.1250   -0.3333
  band No.  band energies     occupation 
      1      -8.6050      2.00000
      2      -8.0501      2.00000
      3      -5.9202      2.00000
      4      -5.8589      2.00000
      5      -5.8062      2.00000
      6      -5.7424      2.00000
      7      -5.6885      2.00000
      8      -5.6241      2.00000
      9      -5.5495      2.00000
     10      -5.4417      2.00000
     11      -5.2944      2.00000
     12      -4.5163      2.00000
     13       2.1680      2.00000
     14       3.7075      2.00000
     15       4.2311      2.00000
     16       6.3551      2.00000
     17       6.6210      2.00000
     18       7.3509      2.00000
     19      13.7164      0.00000
     20      14.2117      0.00000
     21      15.6048      0.00000
     22      16.5475      0.00000
     23      18.8649      0.00000
     24      19.3413      0.00000
     25      20.2510      0.00000
     26      20.9835      0.00000
     27      24.9348      0.00000
     28      26.5870      0.00000
     29      27.0364      0.00000
     30      28.1309      0.00000
     31      31.5345      0.00000
     32      32.3761      0.00000

 k-point   272 :      -0.1250    0.1250   -0.3333
  band No.  band energies     occupation 
      1      -9.0277      2.00000
      2      -8.3100      2.00000
      3      -5.8965      2.00000
      4      -5.8726      2.00000
      5      -5.8303      2.00000
      6      -5.7176      2.00000
      7      -5.6475      2.00000
      8      -5.6188      2.00000
      9      -5.5929      2.00000
     10      -5.4390      2.00000
     11      -5.4012      2.00000
     12      -4.7890      2.00000
     13       2.5084      2.00000
     14       4.9577      2.00000
     15       5.3460      2.00000
     16       6.0579      2.00000
     17       6.5116      2.00000
     18       7.5733      2.00000
     19      13.1395      0.00000
     20      13.4467      0.00000
     21      16.8187      0.00000
     22      17.3587      0.00000
     23      18.7175      0.00000
     24      19.8531      0.00000
     25      20.4746      0.00000
     26      20.9428      0.00000
     27      23.6047      0.00000
     28      26.4073      0.00000
     29      26.8393      0.00000
     30      29.4303      0.00000
     31      30.5117      0.00000
     32      32.7925      0.00000

 k-point   273 :       0.0000    0.2500   -0.3333
  band No.  band energies     occupation 
      1      -8.5654      2.00000
      2      -7.9968      2.00000
      3      -5.9620      2.00000
      4      -5.9051      2.00000
      5      -5.8166      2.00000
      6      -5.7160      2.00000
      7      -5.6370      2.00000
      8      -5.5992      2.00000
      9      -5.5227      2.00000
     10      -5.4514      2.00000
     11      -5.4120      2.00000
     12      -4.6736      2.00000
     13       1.6097      2.00000
     14       3.0394      2.00000
     15       4.2790      2.00000
     16       6.8102      2.00000
     17       7.1211      2.00000
     18       7.7185      2.00000
     19      13.4582      0.00000
     20      14.4000      0.00000
     21      16.1291      0.00000
     22      17.1012      0.00000
     23      18.3307      0.00000
     24      18.8614      0.00000
     25      22.1984      0.00000
     26      22.7158      0.00000
     27      24.4648      0.00000
     28      26.5667      0.00000
     29      27.0644      0.00000
     30      28.9606      0.00000
     31      30.4234      0.00000
     32      32.1393      0.00000

 k-point   274 :       0.1250    0.2500   -0.3333
  band No.  band energies     occupation 
      1      -8.2628      2.00000
      2      -7.8150      2.00000
      3      -5.9035      2.00000
      4      -5.8671      2.00000
      5      -5.7930      2.00000
      6      -5.7099      2.00000
      7      -5.6339      2.00000
      8      -5.5973      2.00000
      9      -5.5768      2.00000
     10      -5.5022      2.00000
     11      -5.3694      2.00000
     12      -4.5925      2.00000
     13       1.3539      2.00000
     14       2.5875      2.00000
     15       4.5352      2.00000
     16       5.6868      2.00000
     17       6.5011      2.00000
     18       7.0954      2.00000
     19      14.1392      0.00000
     20      15.7078      0.00000
     21      16.2769      0.00000
     22      17.4382      0.00000
     23      17.7734      0.00000
     24      18.4324      0.00000
     25      23.1354      0.00000
     26      23.8026      0.00000
     27      24.0159      0.00000
     28      27.2863      0.00000
     29      28.1023      0.00000
     30      28.6691      0.00000
     31      29.0086      0.00000
     32      31.0790      0.00000

 k-point   275 :       0.2500    0.2500   -0.3333
  band No.  band energies     occupation 
      1      -7.8714      2.00000
      2      -7.6376      2.00000
      3      -5.8822      2.00000
      4      -5.8425      2.00000
      5      -5.7367      2.00000
      6      -5.6729      2.00000
      7      -5.6445      2.00000
      8      -5.6441      2.00000
      9      -5.5450      2.00000
     10      -5.5257      2.00000
     11      -5.0799      2.00000
     12      -4.2512      2.00000
     13       1.2296      2.00000
     14       2.1029      2.00000
     15       3.8294      2.00000
     16       5.1350      2.00000
     17       5.4338      2.00000
     18       6.8595      2.00000
     19      15.0052      0.00000
     20      15.7059      0.00000
     21      16.3350      0.00000
     22      17.1264      0.00000
     23      17.2428      0.00000
     24      18.2316      0.00000
     25      22.7628      0.00000
     26      23.3301      0.00000
     27      23.5190      0.00000
     28      27.5587      0.00000
     29      28.4835      0.00000
     30      28.8772      0.00000
     31      30.9684      0.00000
     32      32.1893      0.00000

 k-point   276 :       0.3750    0.2500   -0.3333
  band No.  band energies     occupation 
      1      -7.6571      2.00000
      2      -7.6031      2.00000
      3      -5.9333      2.00000
      4      -5.8767      2.00000
      5      -5.8008      2.00000
      6      -5.6856      2.00000
      7      -5.6219      2.00000
      8      -5.5772      2.00000
      9      -5.4745      2.00000
     10      -5.4315      2.00000
     11      -4.3749      2.00000
     12      -3.8627      2.00000
     13       0.8031      2.00000
     14       1.2268      2.00000
     15       3.4707      2.00000
     16       4.7930      2.00000
     17       6.0834      2.00000
     18       6.4463      2.00000
     19      14.4283      0.00000
     20      14.7654      0.00000
     21      15.6509      0.00000
     22      16.5879      0.00000
     23      17.1124      0.00000
     24      18.5272      0.00000
     25      21.8445      0.00000
     26      22.9425      0.00000
     27      24.2994      0.00000
     28      27.0144      0.00000
     29      28.0746      0.00000
     30      29.5711      0.00000
     31      32.4636      0.00000
     32      32.9588      0.00000

 k-point   277 :       0.5000    0.2500   -0.3333
  band No.  band energies     occupation 
      1      -7.7561      2.00000
      2      -7.6607      2.00000
      3      -5.9534      2.00000
      4      -5.9114      2.00000
      5      -5.7958      2.00000
      6      -5.6963      2.00000
      7      -5.6411      2.00000
      8      -5.5756      2.00000
      9      -5.4198      2.00000
     10      -5.3773      2.00000
     11      -4.0659      2.00000
     12      -3.6462      2.00000
     13       0.6623      2.00000
     14       1.1527      2.00000
     15       4.1363      2.00000
     16       4.9407      2.00000
     17       5.7729      2.00000
     18       6.6761      2.00000
     19      12.9731      0.00000
     20      13.7241      0.00000
     21      15.1855      0.00000
     22      16.1586      0.00000
     23      18.1972      0.00000
     24      18.9304      0.00000
     25      21.1318      0.00000
     26      21.8975      0.00000
     27      24.6017      0.00000
     28      26.7072      0.00000
     29      28.4694      0.00000
     30      30.1364      0.00000
     31      31.5498      0.00000
     32      33.1192      0.00000

 k-point   278 :      -0.3750    0.2500   -0.3333
  band No.  band energies     occupation 
      1      -8.0473      2.00000
      2      -7.7956      2.00000
      3      -5.9213      2.00000
      4      -5.8878      2.00000
      5      -5.7951      2.00000
      6      -5.6981      2.00000
      7      -5.6707      2.00000
      8      -5.5919      2.00000
      9      -5.4478      2.00000
     10      -5.4035      2.00000
     11      -4.6500      2.00000
     12      -3.7411      2.00000
     13       1.6189      2.00000
     14       2.5226      2.00000
     15       4.1619      2.00000
     16       5.0196      2.00000
     17       5.7111      2.00000
     18       6.7349      2.00000
     19      12.2602      0.00000
     20      13.3216      0.00000
     21      15.4166      0.00000
     22      16.3282      0.00000
     23      18.5591      0.00000
     24      19.6718      0.00000
     25      20.6374      0.00000
     26      20.9885      0.00000
     27      24.5329      0.00000
     28      26.5562      0.00000
     29      28.0535      0.00000
     30      28.9952      0.00000
     31      30.8560      0.00000
     32      33.1428      0.00000

 k-point   279 :      -0.2500    0.2500   -0.3333
  band No.  band energies     occupation 
      1      -8.3872      2.00000
      2      -7.9579      2.00000
      3      -5.8623      2.00000
      4      -5.8329      2.00000
      5      -5.8239      2.00000
      6      -5.6968      2.00000
      7      -5.6929      2.00000
      8      -5.6566      2.00000
      9      -5.5360      2.00000
     10      -5.4340      2.00000
     11      -5.0881      2.00000
     12      -4.1779      2.00000
     13       2.7563      2.00000
     14       3.7755      2.00000
     15       4.1248      2.00000
     16       5.0522      2.00000
     17       5.6896      2.00000
     18       6.9803      2.00000
     19      12.8812      0.00000
     20      13.8379      0.00000
     21      15.5275      0.00000
     22      16.5939      0.00000
     23      18.7355      0.00000
     24      19.8744      0.00000
     25      20.1397      0.00000
     26      20.5157      0.00000
     27      25.3612      0.00000
     28      25.5524      0.00000
     29      27.4630      0.00000
     30      27.4845      0.00000
     31      31.4594      0.00000
     32      33.2935      0.00000

 k-point   280 :      -0.1250    0.2500   -0.3333
  band No.  band energies     occupation 
      1      -8.6050      2.00000
      2      -8.0501      2.00000
      3      -5.9202      2.00000
      4      -5.8589      2.00000
      5      -5.8062      2.00000
      6      -5.7424      2.00000
      7      -5.6885      2.00000
      8      -5.6241      2.00000
      9      -5.5495      2.00000
     10      -5.4417      2.00000
     11      -5.2944      2.00000
     12      -4.5163      2.00000
     13       2.1680      2.00000
     14       3.7075      2.00000
     15       4.2311      2.00000
     16       6.3551      2.00000
     17       6.6210      2.00000
     18       7.3509      2.00000
     19      13.7164      0.00000
     20      14.2117      0.00000
     21      15.6048      0.00000
     22      16.5475      0.00000
     23      18.8649      0.00000
     24      19.3413      0.00000
     25      20.2510      0.00000
     26      20.9835      0.00000
     27      24.9348      0.00000
     28      26.5870      0.00000
     29      27.0364      0.00000
     30      28.1309      0.00000
     31      31.5345      0.00000
     32      32.3761      0.00000

 k-point   281 :       0.0000    0.3750   -0.3333
  band No.  band energies     occupation 
      1      -7.9199      2.00000
      2      -7.6407      2.00000
      3      -5.9506      2.00000
      4      -5.9018      2.00000
      5      -5.8243      2.00000
      6      -5.7899      2.00000
      7      -5.6008      2.00000
      8      -5.5631      2.00000
      9      -5.4450      2.00000
     10      -5.4342      2.00000
     11      -5.2233      2.00000
     12      -4.5078      2.00000
     13       0.2560      2.00000
     14       1.1879      2.00000
     15       4.7987      2.00000
     16       6.5663      2.00000
     17       7.3176      2.00000
     18       7.8533      2.00000
     19      13.2268      0.00000
     20      14.3589      0.00000
     21      16.3955      0.00000
     22      17.5886      0.00000
     23      17.8466      0.00000
     24      18.5085      0.00000
     25      22.1200      0.00000
     26      22.4319      0.00000
     27      23.9327      0.00000
     28      26.4067      0.00000
     29      28.4368      0.00000
     30      29.4283      0.00000
     31      30.4934      0.00000
     32      31.2729      0.00000

 k-point   282 :       0.1250    0.3750   -0.3333
  band No.  band energies     occupation 
      1      -7.7495      2.00000
      2      -7.5754      2.00000
      3      -5.9172      2.00000
      4      -5.8588      2.00000
      5      -5.7901      2.00000
      6      -5.7632      2.00000
      7      -5.6536      2.00000
      8      -5.5490      2.00000
      9      -5.4923      2.00000
     10      -5.4337      2.00000
     11      -5.0360      2.00000
     12      -4.3761      2.00000
     13       0.2865      2.00000
     14       1.0311      2.00000
     15       4.8777      2.00000
     16       6.1060      2.00000
     17       6.3570      2.00000
     18       6.9261      2.00000
     19      13.8595      0.00000
     20      14.9501      0.00000
     21      16.4541      0.00000
     22      17.4110      0.00000
     23      17.9492      0.00000
     24      18.7208      0.00000
     25      21.2669      0.00000
     26      23.0145      0.00000
     27      24.1703      0.00000
     28      26.4768      0.00000
     29      28.4705      0.00000
     30      29.7034      0.00000
     31      30.6705      0.00000
     32      31.2174      0.00000

 k-point   283 :       0.2500    0.3750   -0.3333
  band No.  band energies     occupation 
      1      -7.6571      2.00000
      2      -7.6031      2.00000
      3      -5.9333      2.00000
      4      -5.8767      2.00000
      5      -5.8008      2.00000
      6      -5.6856      2.00000
      7      -5.6219      2.00000
      8      -5.5772      2.00000
      9      -5.4746      2.00000
     10      -5.4314      2.00000
     11      -4.3749      2.00000
     12      -3.8627      2.00000
     13       0.8030      2.00000
     14       1.2269      2.00000
     15       3.4708      2.00000
     16       4.7929      2.00000
     17       6.0834      2.00000
     18       6.4462      2.00000
     19      14.4282      0.00000
     20      14.7654      0.00000
     21      15.6509      0.00000
     22      16.5879      0.00000
     23      17.1126      0.00000
     24      18.5271      0.00000
     25      21.8443      0.00000
     26      22.9426      0.00000
     27      24.2996      0.00000
     28      27.0143      0.00000
     29      28.0745      0.00000
     30      29.5711      0.00000
     31      32.4635      0.00000
     32      32.9587      0.00000

 k-point   284 :       0.3750    0.3750   -0.3333
  band No.  band energies     occupation 
      1      -7.7200      2.00000
      2      -7.6856      2.00000
      3      -5.9519      2.00000
      4      -5.8655      2.00000
      5      -5.8641      2.00000
      6      -5.6240      2.00000
      7      -5.6148      2.00000
      8      -5.5360      2.00000
      9      -5.3982      2.00000
     10      -5.3830      2.00000
     11      -3.4788      2.00000
     12      -3.3409      2.00000
     13       1.4660      2.00000
     14       1.7682      2.00000
     15       2.0217      2.00000
     16       3.5893      2.00000
     17       5.9412      2.00000
     18       6.4989      2.00000
     19      12.8833      0.00000
     20      12.9975      0.00000
     21      15.5907      0.00000
     22      16.5518      0.00000
     23      17.2078      0.00000
     24      18.5457      0.00000
     25      22.0340      0.00000
     26      22.4102      0.00000
     27      24.5995      0.00000
     28      27.4051      0.00000
     29      27.6628      0.00000
     30      30.2590      0.00000
     31      32.1935      0.00000
     32      33.2217      0.00000

 k-point   285 :       0.5000    0.3750   -0.3333
  band No.  band energies     occupation 
      1      -7.8603      2.00000
      2      -7.7590      2.00000
      3      -5.9467      2.00000
      4      -5.8852      2.00000
      5      -5.8241      2.00000
      6      -5.6491      2.00000
      7      -5.6069      2.00000
      8      -5.5534      2.00000
      9      -5.3341      2.00000
     10      -5.3256      2.00000
     11      -3.4248      2.00000
     12      -2.9194      2.00000
     13       1.5820      2.00000
     14       1.7475      2.00000
     15       3.0099      2.00000
     16       3.6277      2.00000
     17       5.2562      2.00000
     18       6.3611      2.00000
     19      11.2903      0.00000
     20      12.0210      0.00000
     21      15.5529      0.00000
     22      16.6587      0.00000
     23      18.0780      0.00000
     24      19.2423      0.00000
     25      20.5383      0.00000
     26      21.7061      0.00000
     27      24.7540      0.00000
     28      27.3237      0.00000
     29      28.5128      0.00000
     30      30.2739      0.00000
     31      31.5096      0.00000
     32      33.2253      0.00000

 k-point   286 :      -0.3750    0.3750   -0.3333
  band No.  band energies     occupation 
      1      -7.9779      2.00000
      2      -7.8045      2.00000
      3      -5.9301      2.00000
      4      -5.8427      2.00000
      5      -5.8419      2.00000
      6      -5.6696      2.00000
      7      -5.6038      2.00000
      8      -5.5842      2.00000
      9      -5.3731      2.00000
     10      -5.3467      2.00000
     11      -4.0642      2.00000
     12      -3.1768      2.00000
     13       2.3789      2.00000
     14       2.7426      2.00000
     15       2.8341      2.00000
     16       4.1538      2.00000
     17       5.2299      2.00000
     18       6.2122      2.00000
     19      10.9746      0.00000
     20      12.1197      0.00000
     21      15.9378      0.00000
     22      16.7547      0.00000
     23      17.8476      0.00000
     24      20.1794      0.00000
     25      20.5903      0.00000
     26      20.9588      0.00000
     27      24.2437      0.00000
     28      27.5288      0.00000
     29      27.8106      0.00000
     30      29.4312      0.00000
     31      30.9188      0.00000
     32      33.3237      0.00000

 k-point   287 :      -0.2500    0.3750   -0.3333
  band No.  band energies     occupation 
      1      -8.0473      2.00000
      2      -7.7956      2.00000
      3      -5.9213      2.00000
      4      -5.8878      2.00000
      5      -5.7951      2.00000
      6      -5.6981      2.00000
      7      -5.6707      2.00000
      8      -5.5919      2.00000
      9      -5.4478      2.00000
     10      -5.4035      2.00000
     11      -4.6500      2.00000
     12      -3.7411      2.00000
     13       1.6189      2.00000
     14       2.5226      2.00000
     15       4.1619      2.00000
     16       5.0196      2.00000
     17       5.7111      2.00000
     18       6.7349      2.00000
     19      12.2602      0.00000
     20      13.3216      0.00000
     21      15.4166      0.00000
     22      16.3282      0.00000
     23      18.5591      0.00000
     24      19.6718      0.00000
     25      20.6374      0.00000
     26      20.9885      0.00000
     27      24.5329      0.00000
     28      26.5562      0.00000
     29      28.0535      0.00000
     30      28.9952      0.00000
     31      30.8560      0.00000
     32      33.1428      0.00000

 k-point   288 :      -0.1250    0.3750   -0.3333
  band No.  band energies     occupation 
      1      -8.0367      2.00000
      2      -7.7331      2.00000
      3      -5.9349      2.00000
      4      -5.8869      2.00000
      5      -5.8592      2.00000
      6      -5.8017      2.00000
      7      -5.6545      2.00000
      8      -5.5537      2.00000
      9      -5.4672      2.00000
     10      -5.4191      2.00000
     11      -5.0196      2.00000
     12      -4.2306      2.00000
     13       0.7155      2.00000
     14       1.7419      2.00000
     15       4.6506      2.00000
     16       6.3728      2.00000
     17       6.9302      2.00000
     18       7.2170      2.00000
     19      13.7304      0.00000
     20      14.4704      0.00000
     21      15.1562      0.00000
     22      16.3150      0.00000
     23      18.2800      0.00000
     24      18.7578      0.00000
     25      20.9887      0.00000
     26      21.1874      0.00000
     27      25.8418      0.00000
     28      26.4039      0.00000
     29      27.8815      0.00000
     30      29.4986      0.00000
     31      31.2076      0.00000
     32      31.7229      0.00000

 k-point   289 :       0.0000    0.5000   -0.3333
  band No.  band energies     occupation 
      1      -7.6096      2.00000
      2      -7.5197      2.00000
      3      -5.9425      2.00000
      4      -5.9018      2.00000
      5      -5.8077      2.00000
      6      -5.8020      2.00000
      7      -5.5899      2.00000
      8      -5.5635      2.00000
      9      -5.4251      2.00000
     10      -5.4010      2.00000
     11      -4.8064      2.00000
     12      -4.7006      2.00000
     13      -0.1590      2.00000
     14       0.1785      2.00000
     15       5.4775      2.00000
     16       6.0536      2.00000
     17       7.4384      2.00000
     18       7.8980      2.00000
     19      13.3471      0.00000
     20      13.6333      0.00000
     21      17.2920      0.00000
     22      17.3132      0.00000
     23      18.0706      0.00000
     24      18.2649      0.00000
     25      21.8950      0.00000
     26      22.3842      0.00000
     27      23.9366      0.00000
     28      25.0071      0.00000
     29      28.9261      0.00000
     30      30.3524      0.00000
     31      30.9298      0.00000
     32      31.6922      0.00000

 k-point   290 :       0.1250    0.5000   -0.3333
  band No.  band energies     occupation 
      1      -7.6502      2.00000
      2      -7.5614      2.00000
      3      -5.9256      2.00000
      4      -5.8711      2.00000
      5      -5.8473      2.00000
      6      -5.8236      2.00000
      7      -5.6450      2.00000
      8      -5.5379      2.00000
      9      -5.4463      2.00000
     10      -5.3866      2.00000
     11      -4.5878      2.00000
     12      -4.3592      2.00000
     13       0.0371      2.00000
     14       0.4417      2.00000
     15       5.3809      2.00000
     16       5.8601      2.00000
     17       6.7441      2.00000
     18       7.0641      2.00000
     19      13.8732      0.00000
     20      14.0756      0.00000
     21      16.1080      0.00000
     22      16.8167      0.00000
     23      18.0649      0.00000
     24      18.6377      0.00000
     25      20.5236      0.00000
     26      22.2818      0.00000
     27      25.0571      0.00000
     28      26.0523      0.00000
     29      28.8076      0.00000
     30      29.8266      0.00000
     31      31.3198      0.00000
     32      31.9695      0.00000

 k-point   291 :       0.2500    0.5000   -0.3333
  band No.  band energies     occupation 
      1      -7.7561      2.00000
      2      -7.6607      2.00000
      3      -5.9534      2.00000
      4      -5.9114      2.00000
      5      -5.7958      2.00000
      6      -5.6963      2.00000
      7      -5.6411      2.00000
      8      -5.5756      2.00000
      9      -5.4199      2.00000
     10      -5.3773      2.00000
     11      -4.0659      2.00000
     12      -3.6461      2.00000
     13       0.6623      2.00000
     14       1.1526      2.00000
     15       4.1363      2.00000
     16       4.9406      2.00000
     17       5.7728      2.00000
     18       6.6761      2.00000
     19      12.9730      0.00000
     20      13.7242      0.00000
     21      15.1856      0.00000
     22      16.1586      0.00000
     23      18.1972      0.00000
     24      18.9304      0.00000
     25      21.1317      0.00000
     26      21.8976      0.00000
     27      24.6019      0.00000
     28      26.7070      0.00000
     29      28.4693      0.00000
     30      30.1363      0.00000
     31      31.5496      0.00000
     32      33.1193      0.00000

 k-point   292 :       0.3750    0.5000   -0.3333
  band No.  band energies     occupation 
      1      -7.8603      2.00000
      2      -7.7590      2.00000
      3      -5.9467      2.00000
      4      -5.8852      2.00000
      5      -5.8241      2.00000
      6      -5.6490      2.00000
      7      -5.6069      2.00000
      8      -5.5534      2.00000
      9      -5.3342      2.00000
     10      -5.3255      2.00000
     11      -3.4248      2.00000
     12      -2.9194      2.00000
     13       1.5820      2.00000
     14       1.7475      2.00000
     15       3.0099      2.00000
     16       3.6276      2.00000
     17       5.2561      2.00000
     18       6.3611      2.00000
     19      11.2903      0.00000
     20      12.0210      0.00000
     21      15.5530      0.00000
     22      16.6589      0.00000
     23      18.0780      0.00000
     24      19.2423      0.00000
     25      20.5383      0.00000
     26      21.7060      0.00000
     27      24.7541      0.00000
     28      27.3236      0.00000
     29      28.5128      0.00000
     30      30.2738      0.00000
     31      31.5094      0.00000
     32      33.2254      0.00000

 k-point   293 :       0.5000    0.5000   -0.3333
  band No.  band energies     occupation 
      1      -7.9014      2.00000
      2      -7.7990      2.00000
      3      -5.9505      2.00000
      4      -5.8611      2.00000
      5      -5.8259      2.00000
      6      -5.6617      2.00000
      7      -5.5942      2.00000
      8      -5.5534      2.00000
      9      -5.2831      2.00000
     10      -5.2775      2.00000
     11      -3.0495      2.00000
     12      -2.5948      2.00000
     13       1.3033      2.00000
     14       2.3399      2.00000
     15       2.7193      2.00000
     16       3.8018      2.00000
     17       4.7138      2.00000
     18       5.8361      2.00000
     19      10.7029      0.00000
     20      11.4422      0.00000
     21      15.3208      0.00000
     22      17.5084      0.00000
     23      18.1088      0.00000
     24      19.1829      0.00000
     25      20.3724      0.00000
     26      20.6350      0.00000
     27      25.2801      0.00000
     28      27.6149      0.00000
     29      28.9305      0.00000
     30      30.4331      0.00000
     31      31.5514      0.00000
     32      33.2980      0.00000

 k-point   294 :      -0.3750    0.5000   -0.3333
  band No.  band energies     occupation 
      1      -7.8603      2.00000
      2      -7.7590      2.00000
      3      -5.9467      2.00000
      4      -5.8852      2.00000
      5      -5.8241      2.00000
      6      -5.6491      2.00000
      7      -5.6069      2.00000
      8      -5.5534      2.00000
      9      -5.3341      2.00000
     10      -5.3256      2.00000
     11      -3.4248      2.00000
     12      -2.9194      2.00000
     13       1.5820      2.00000
     14       1.7475      2.00000
     15       3.0099      2.00000
     16       3.6277      2.00000
     17       5.2562      2.00000
     18       6.3611      2.00000
     19      11.2903      0.00000
     20      12.0210      0.00000
     21      15.5529      0.00000
     22      16.6587      0.00000
     23      18.0780      0.00000
     24      19.2423      0.00000
     25      20.5383      0.00000
     26      21.7061      0.00000
     27      24.7540      0.00000
     28      27.3237      0.00000
     29      28.5128      0.00000
     30      30.2739      0.00000
     31      31.5096      0.00000
     32      33.2253      0.00000

 k-point   295 :      -0.2500    0.5000   -0.3333
  band No.  band energies     occupation 
      1      -7.7561      2.00000
      2      -7.6607      2.00000
      3      -5.9534      2.00000
      4      -5.9114      2.00000
      5      -5.7958      2.00000
      6      -5.6963      2.00000
      7      -5.6411      2.00000
      8      -5.5756      2.00000
      9      -5.4198      2.00000
     10      -5.3773      2.00000
     11      -4.0659      2.00000
     12      -3.6462      2.00000
     13       0.6623      2.00000
     14       1.1527      2.00000
     15       4.1363      2.00000
     16       4.9407      2.00000
     17       5.7729      2.00000
     18       6.6761      2.00000
     19      12.9731      0.00000
     20      13.7241      0.00000
     21      15.1855      0.00000
     22      16.1586      0.00000
     23      18.1972      0.00000
     24      18.9304      0.00000
     25      21.1318      0.00000
     26      21.8975      0.00000
     27      24.6017      0.00000
     28      26.7072      0.00000
     29      28.4694      0.00000
     30      30.1364      0.00000
     31      31.5498      0.00000
     32      33.1192      0.00000

 k-point   296 :      -0.1250    0.5000   -0.3333
  band No.  band energies     occupation 
      1      -7.6502      2.00000
      2      -7.5614      2.00000
      3      -5.9256      2.00000
      4      -5.8711      2.00000
      5      -5.8473      2.00000
      6      -5.8236      2.00000
      7      -5.6450      2.00000
      8      -5.5379      2.00000
      9      -5.4463      2.00000
     10      -5.3866      2.00000
     11      -4.5878      2.00000
     12      -4.3592      2.00000
     13       0.0371      2.00000
     14       0.4417      2.00000
     15       5.3809      2.00000
     16       5.8601      2.00000
     17       6.7441      2.00000
     18       7.0641      2.00000
     19      13.8734      0.00000
     20      14.0754      0.00000
     21      16.1079      0.00000
     22      16.8167      0.00000
     23      18.0649      0.00000
     24      18.6377      0.00000
     25      20.5236      0.00000
     26      22.2818      0.00000
     27      25.0569      0.00000
     28      26.0523      0.00000
     29      28.8077      0.00000
     30      29.8266      0.00000
     31      31.3199      0.00000
     32      31.9699      0.00000

 k-point   297 :       0.0000   -0.3750   -0.3333
  band No.  band energies     occupation 
      1      -7.9199      2.00000
      2      -7.6406      2.00000
      3      -5.9506      2.00000
      4      -5.9018      2.00000
      5      -5.8243      2.00000
      6      -5.7899      2.00000
      7      -5.6008      2.00000
      8      -5.5631      2.00000
      9      -5.4450      2.00000
     10      -5.4342      2.00000
     11      -5.2233      2.00000
     12      -4.5078      2.00000
     13       0.2561      2.00000
     14       1.1879      2.00000
     15       4.7987      2.00000
     16       6.5663      2.00000
     17       7.3176      2.00000
     18       7.8533      2.00000
     19      13.2270      0.00000
     20      14.3587      0.00000
     21      16.3954      0.00000
     22      17.5887      0.00000
     23      17.8467      0.00000
     24      18.5085      0.00000
     25      22.1199      0.00000
     26      22.4319      0.00000
     27      23.9326      0.00000
     28      26.4068      0.00000
     29      28.4368      0.00000
     30      29.4282      0.00000
     31      30.4934      0.00000
     32      31.2733      0.00000

 k-point   298 :       0.1250   -0.3750   -0.3333
  band No.  band energies     occupation 
      1      -8.0367      2.00000
      2      -7.7331      2.00000
      3      -5.9349      2.00000
      4      -5.8869      2.00000
      5      -5.8592      2.00000
      6      -5.8017      2.00000
      7      -5.6545      2.00000
      8      -5.5537      2.00000
      9      -5.4672      2.00000
     10      -5.4191      2.00000
     11      -5.0197      2.00000
     12      -4.2306      2.00000
     13       0.7156      2.00000
     14       1.7418      2.00000
     15       4.6505      2.00000
     16       6.3729      2.00000
     17       6.9302      2.00000
     18       7.2170      2.00000
     19      13.7305      0.00000
     20      14.4703      0.00000
     21      15.1563      0.00000
     22      16.3150      0.00000
     23      18.2800      0.00000
     24      18.7577      0.00000
     25      20.9886      0.00000
     26      21.1874      0.00000
     27      25.8419      0.00000
     28      26.4040      0.00000
     29      27.8815      0.00000
     30      29.4985      0.00000
     31      31.2077      0.00000
     32      31.7226      0.00000

 k-point   299 :       0.2500   -0.3750   -0.3333
  band No.  band energies     occupation 
      1      -8.0473      2.00000
      2      -7.7956      2.00000
      3      -5.9213      2.00000
      4      -5.8878      2.00000
      5      -5.7951      2.00000
      6      -5.6981      2.00000
      7      -5.6707      2.00000
      8      -5.5920      2.00000
      9      -5.4478      2.00000
     10      -5.4035      2.00000
     11      -4.6500      2.00000
     12      -3.7411      2.00000
     13       1.6190      2.00000
     14       2.5225      2.00000
     15       4.1620      2.00000
     16       5.0196      2.00000
     17       5.7110      2.00000
     18       6.7349      2.00000
     19      12.2601      0.00000
     20      13.3217      0.00000
     21      15.4167      0.00000
     22      16.3282      0.00000
     23      18.5590      0.00000
     24      19.6717      0.00000
     25      20.6375      0.00000
     26      20.9884      0.00000
     27      24.5332      0.00000
     28      26.5561      0.00000
     29      28.0534      0.00000
     30      28.9951      0.00000
     31      30.8555      0.00000
     32      33.1430      0.00000

 k-point   300 :       0.3750   -0.3750   -0.3333
  band No.  band energies     occupation 
      1      -7.9779      2.00000
      2      -7.8045      2.00000
      3      -5.9301      2.00000
      4      -5.8427      2.00000
      5      -5.8419      2.00000
      6      -5.6696      2.00000
      7      -5.6038      2.00000
      8      -5.5842      2.00000
      9      -5.3731      2.00000
     10      -5.3467      2.00000
     11      -4.0642      2.00000
     12      -3.1768      2.00000
     13       2.3789      2.00000
     14       2.7426      2.00000
     15       2.8341      2.00000
     16       4.1537      2.00000
     17       5.2297      2.00000
     18       6.2122      2.00000
     19      10.9745      0.00000
     20      12.1197      0.00000
     21      15.9378      0.00000
     22      16.7549      0.00000
     23      17.8476      0.00000
     24      20.1793      0.00000
     25      20.5902      0.00000
     26      20.9588      0.00000
     27      24.2438      0.00000
     28      27.5286      0.00000
     29      27.8107      0.00000
     30      29.4311      0.00000
     31      30.9185      0.00000
     32      33.3238      0.00000

 k-point   301 :       0.5000   -0.3750   -0.3333
  band No.  band energies     occupation 
      1      -7.8603      2.00000
      2      -7.7590      2.00000
      3      -5.9467      2.00000
      4      -5.8852      2.00000
      5      -5.8241      2.00000
      6      -5.6490      2.00000
      7      -5.6069      2.00000
      8      -5.5534      2.00000
      9      -5.3342      2.00000
     10      -5.3255      2.00000
     11      -3.4248      2.00000
     12      -2.9194      2.00000
     13       1.5820      2.00000
     14       1.7475      2.00000
     15       3.0099      2.00000
     16       3.6276      2.00000
     17       5.2561      2.00000
     18       6.3611      2.00000
     19      11.2903      0.00000
     20      12.0210      0.00000
     21      15.5530      0.00000
     22      16.6589      0.00000
     23      18.0780      0.00000
     24      19.2423      0.00000
     25      20.5383      0.00000
     26      21.7060      0.00000
     27      24.7541      0.00000
     28      27.3236      0.00000
     29      28.5128      0.00000
     30      30.2738      0.00000
     31      31.5094      0.00000
     32      33.2254      0.00000

 k-point   302 :      -0.3750   -0.3750   -0.3333
  band No.  band energies     occupation 
      1      -7.7200      2.00000
      2      -7.6856      2.00000
      3      -5.9519      2.00000
      4      -5.8655      2.00000
      5      -5.8641      2.00000
      6      -5.6240      2.00000
      7      -5.6148      2.00000
      8      -5.5360      2.00000
      9      -5.3982      2.00000
     10      -5.3830      2.00000
     11      -3.4788      2.00000
     12      -3.3409      2.00000
     13       1.4660      2.00000
     14       1.7682      2.00000
     15       2.0217      2.00000
     16       3.5893      2.00000
     17       5.9412      2.00000
     18       6.4989      2.00000
     19      12.8833      0.00000
     20      12.9975      0.00000
     21      15.5907      0.00000
     22      16.5518      0.00000
     23      17.2078      0.00000
     24      18.5457      0.00000
     25      22.0340      0.00000
     26      22.4102      0.00000
     27      24.5995      0.00000
     28      27.4051      0.00000
     29      27.6628      0.00000
     30      30.2590      0.00000
     31      32.1935      0.00000
     32      33.2217      0.00000

 k-point   303 :      -0.2500   -0.3750   -0.3333
  band No.  band energies     occupation 
      1      -7.6571      2.00000
      2      -7.6031      2.00000
      3      -5.9333      2.00000
      4      -5.8767      2.00000
      5      -5.8008      2.00000
      6      -5.6856      2.00000
      7      -5.6219      2.00000
      8      -5.5772      2.00000
      9      -5.4745      2.00000
     10      -5.4315      2.00000
     11      -4.3749      2.00000
     12      -3.8627      2.00000
     13       0.8031      2.00000
     14       1.2268      2.00000
     15       3.4707      2.00000
     16       4.7930      2.00000
     17       6.0834      2.00000
     18       6.4463      2.00000
     19      14.4283      0.00000
     20      14.7654      0.00000
     21      15.6509      0.00000
     22      16.5879      0.00000
     23      17.1124      0.00000
     24      18.5272      0.00000
     25      21.8445      0.00000
     26      22.9425      0.00000
     27      24.2994      0.00000
     28      27.0144      0.00000
     29      28.0746      0.00000
     30      29.5711      0.00000
     31      32.4636      0.00000
     32      32.9588      0.00000

 k-point   304 :      -0.1250   -0.3750   -0.3333
  band No.  band energies     occupation 
      1      -7.7495      2.00000
      2      -7.5754      2.00000
      3      -5.9172      2.00000
      4      -5.8588      2.00000
      5      -5.7900      2.00000
      6      -5.7633      2.00000
      7      -5.6536      2.00000
      8      -5.5490      2.00000
      9      -5.4923      2.00000
     10      -5.4337      2.00000
     11      -5.0360      2.00000
     12      -4.3761      2.00000
     13       0.2866      2.00000
     14       1.0311      2.00000
     15       4.8776      2.00000
     16       6.1060      2.00000
     17       6.3571      2.00000
     18       6.9261      2.00000
     19      13.8597      0.00000
     20      14.9499      0.00000
     21      16.4540      0.00000
     22      17.4110      0.00000
     23      17.9493      0.00000
     24      18.7209      0.00000
     25      21.2670      0.00000
     26      23.0145      0.00000
     27      24.1701      0.00000
     28      26.4767      0.00000
     29      28.4704      0.00000
     30      29.7035      0.00000
     31      30.6704      0.00000
     32      31.2176      0.00000

 k-point   305 :      -0.0000   -0.2500   -0.3333
  band No.  band energies     occupation 
      1      -8.5655      2.00000
      2      -7.9968      2.00000
      3      -5.9620      2.00000
      4      -5.9051      2.00000
      5      -5.8166      2.00000
      6      -5.7160      2.00000
      7      -5.6369      2.00000
      8      -5.5992      2.00000
      9      -5.5228      2.00000
     10      -5.4514      2.00000
     11      -5.4120      2.00000
     12      -4.6736      2.00000
     13       1.6098      2.00000
     14       3.0394      2.00000
     15       4.2790      2.00000
     16       6.8102      2.00000
     17       7.1211      2.00000
     18       7.7185      2.00000
     19      13.4582      0.00000
     20      14.4000      0.00000
     21      16.1289      0.00000
     22      17.1013      0.00000
     23      18.3308      0.00000
     24      18.8615      0.00000
     25      22.1984      0.00000
     26      22.7157      0.00000
     27      24.4647      0.00000
     28      26.5667      0.00000
     29      27.0644      0.00000
     30      28.9607      0.00000
     31      30.4234      0.00000
     32      32.1397      0.00000

 k-point   306 :       0.1250   -0.2500   -0.3333
  band No.  band energies     occupation 
      1      -8.6050      2.00000
      2      -8.0501      2.00000
      3      -5.9202      2.00000
      4      -5.8590      2.00000
      5      -5.8062      2.00000
      6      -5.7424      2.00000
      7      -5.6885      2.00000
      8      -5.6242      2.00000
      9      -5.5495      2.00000
     10      -5.4417      2.00000
     11      -5.2944      2.00000
     12      -4.5163      2.00000
     13       2.1680      2.00000
     14       3.7074      2.00000
     15       4.2310      2.00000
     16       6.3551      2.00000
     17       6.6209      2.00000
     18       7.3510      2.00000
     19      13.7164      0.00000
     20      14.2117      0.00000
     21      15.6048      0.00000
     22      16.5475      0.00000
     23      18.8650      0.00000
     24      19.3414      0.00000
     25      20.2511      0.00000
     26      20.9834      0.00000
     27      24.9349      0.00000
     28      26.5871      0.00000
     29      27.0364      0.00000
     30      28.1310      0.00000
     31      31.5344      0.00000
     32      32.3763      0.00000

 k-point   307 :       0.2500   -0.2500   -0.3333
  band No.  band energies     occupation 
      1      -8.3872      2.00000
      2      -7.9579      2.00000
      3      -5.8623      2.00000
      4      -5.8329      2.00000
      5      -5.8239      2.00000
      6      -5.6968      2.00000
      7      -5.6929      2.00000
      8      -5.6567      2.00000
      9      -5.5360      2.00000
     10      -5.4340      2.00000
     11      -5.0881      2.00000
     12      -4.1779      2.00000
     13       2.7564      2.00000
     14       3.7755      2.00000
     15       4.1247      2.00000
     16       5.0522      2.00000
     17       5.6895      2.00000
     18       6.9804      2.00000
     19      12.8811      0.00000
     20      13.8379      0.00000
     21      15.5276      0.00000
     22      16.5939      0.00000
     23      18.7355      0.00000
     24      19.8744      0.00000
     25      20.1397      0.00000
     26      20.5157      0.00000
     27      25.3613      0.00000
     28      25.5527      0.00000
     29      27.4629      0.00000
     30      27.4842      0.00000
     31      31.4589      0.00000
     32      33.2938      0.00000

 k-point   308 :       0.3750   -0.2500   -0.3333
  band No.  band energies     occupation 
      1      -8.0473      2.00000
      2      -7.7956      2.00000
      3      -5.9213      2.00000
      4      -5.8878      2.00000
      5      -5.7951      2.00000
      6      -5.6981      2.00000
      7      -5.6707      2.00000
      8      -5.5920      2.00000
      9      -5.4478      2.00000
     10      -5.4035      2.00000
     11      -4.6500      2.00000
     12      -3.7411      2.00000
     13       1.6190      2.00000
     14       2.5225      2.00000
     15       4.1620      2.00000
     16       5.0196      2.00000
     17       5.7110      2.00000
     18       6.7349      2.00000
     19      12.2601      0.00000
     20      13.3217      0.00000
     21      15.4167      0.00000
     22      16.3282      0.00000
     23      18.5590      0.00000
     24      19.6717      0.00000
     25      20.6375      0.00000
     26      20.9884      0.00000
     27      24.5332      0.00000
     28      26.5561      0.00000
     29      28.0534      0.00000
     30      28.9951      0.00000
     31      30.8555      0.00000
     32      33.1430      0.00000

 k-point   309 :       0.5000   -0.2500   -0.3333
  band No.  band energies     occupation 
      1      -7.7561      2.00000
      2      -7.6607      2.00000
      3      -5.9534      2.00000
      4      -5.9114      2.00000
      5      -5.7958      2.00000
      6      -5.6963      2.00000
      7      -5.6411      2.00000
      8      -5.5756      2.00000
      9      -5.4199      2.00000
     10      -5.3773      2.00000
     11      -4.0659      2.00000
     12      -3.6461      2.00000
     13       0.6623      2.00000
     14       1.1526      2.00000
     15       4.1363      2.00000
     16       4.9406      2.00000
     17       5.7728      2.00000
     18       6.6761      2.00000
     19      12.9730      0.00000
     20      13.7242      0.00000
     21      15.1856      0.00000
     22      16.1586      0.00000
     23      18.1972      0.00000
     24      18.9304      0.00000
     25      21.1317      0.00000
     26      21.8976      0.00000
     27      24.6019      0.00000
     28      26.7070      0.00000
     29      28.4693      0.00000
     30      30.1363      0.00000
     31      31.5496      0.00000
     32      33.1193      0.00000

 k-point   310 :      -0.3750   -0.2500   -0.3333
  band No.  band energies     occupation 
      1      -7.6571      2.00000
      2      -7.6031      2.00000
      3      -5.9333      2.00000
      4      -5.8767      2.00000
      5      -5.8008      2.00000
      6      -5.6856      2.00000
      7      -5.6219      2.00000
      8      -5.5772      2.00000
      9      -5.4746      2.00000
     10      -5.4314      2.00000
     11      -4.3749      2.00000
     12      -3.8627      2.00000
     13       0.8030      2.00000
     14       1.2269      2.00000
     15       3.4708      2.00000
     16       4.7929      2.00000
     17       6.0834      2.00000
     18       6.4462      2.00000
     19      14.4282      0.00000
     20      14.7654      0.00000
     21      15.6509      0.00000
     22      16.5879      0.00000
     23      17.1126      0.00000
     24      18.5271      0.00000
     25      21.8443      0.00000
     26      22.9426      0.00000
     27      24.2996      0.00000
     28      27.0143      0.00000
     29      28.0745      0.00000
     30      29.5711      0.00000
     31      32.4635      0.00000
     32      32.9587      0.00000

 k-point   311 :      -0.2500   -0.2500   -0.3333
  band No.  band energies     occupation 
      1      -7.8714      2.00000
      2      -7.6376      2.00000
      3      -5.8822      2.00000
      4      -5.8425      2.00000
      5      -5.7367      2.00000
      6      -5.6729      2.00000
      7      -5.6445      2.00000
      8      -5.6441      2.00000
      9      -5.5450      2.00000
     10      -5.5257      2.00000
     11      -5.0799      2.00000
     12      -4.2512      2.00000
     13       1.2296      2.00000
     14       2.1029      2.00000
     15       3.8294      2.00000
     16       5.1350      2.00000
     17       5.4338      2.00000
     18       6.8595      2.00000
     19      15.0052      0.00000
     20      15.7059      0.00000
     21      16.3350      0.00000
     22      17.1264      0.00000
     23      17.2428      0.00000
     24      18.2316      0.00000
     25      22.7628      0.00000
     26      23.3301      0.00000
     27      23.5190      0.00000
     28      27.5587      0.00000
     29      28.4835      0.00000
     30      28.8772      0.00000
     31      30.9684      0.00000
     32      32.1893      0.00000

 k-point   312 :      -0.1250   -0.2500   -0.3333
  band No.  band energies     occupation 
      1      -8.2628      2.00000
      2      -7.8150      2.00000
      3      -5.9035      2.00000
      4      -5.8671      2.00000
      5      -5.7930      2.00000
      6      -5.7099      2.00000
      7      -5.6339      2.00000
      8      -5.5973      2.00000
      9      -5.5768      2.00000
     10      -5.5022      2.00000
     11      -5.3694      2.00000
     12      -4.5925      2.00000
     13       1.3539      2.00000
     14       2.5874      2.00000
     15       4.5351      2.00000
     16       5.6868      2.00000
     17       6.5012      2.00000
     18       7.0953      2.00000
     19      14.1393      0.00000
     20      15.7077      0.00000
     21      16.2768      0.00000
     22      17.4383      0.00000
     23      17.7734      0.00000
     24      18.4325      0.00000
     25      23.1354      0.00000
     26      23.8025      0.00000
     27      24.0158      0.00000
     28      27.2862      0.00000
     29      28.1022      0.00000
     30      28.6691      0.00000
     31      29.0085      0.00000
     32      31.0793      0.00000

 k-point   313 :      -0.0000   -0.1250   -0.3333
  band No.  band energies     occupation 
      1      -9.1132      2.00000
      2      -8.3546      2.00000
      3      -5.9508      2.00000
      4      -5.8941      2.00000
      5      -5.8495      2.00000
      6      -5.6700      2.00000
      7      -5.6214      2.00000
      8      -5.5944      2.00000
      9      -5.5495      2.00000
     10      -5.4700      2.00000
     11      -5.4347      2.00000
     12      -4.9024      2.00000
     13       2.3249      2.00000
     14       4.8648      2.00000
     15       4.9632      2.00000
     16       6.7147      2.00000
     17       7.0581      2.00000
     18       7.7377      2.00000
     19      12.8847      0.00000
     20      13.0955      0.00000
     21      17.2047      0.00000
     22      17.5163      0.00000
     23      18.2743      0.00000
     24      19.3035      0.00000
     25      22.3129      0.00000
     26      22.5475      0.00000
     27      23.9184      0.00000
     28      25.9191      0.00000
     29      26.7091      0.00000
     30      29.8972      0.00000
     31      30.5288      0.00000
     32      31.9187      0.00000

 k-point   314 :       0.1250   -0.1250   -0.3333
  band No.  band energies     occupation 
      1      -9.0277      2.00000
      2      -8.3099      2.00000
      3      -5.8965      2.00000
      4      -5.8726      2.00000
      5      -5.8303      2.00000
      6      -5.7176      2.00000
      7      -5.6475      2.00000
      8      -5.6188      2.00000
      9      -5.5929      2.00000
     10      -5.4390      2.00000
     11      -5.4012      2.00000
     12      -4.7890      2.00000
     13       2.5084      2.00000
     14       4.9577      2.00000
     15       5.3459      2.00000
     16       6.0579      2.00000
     17       6.5116      2.00000
     18       7.5734      2.00000
     19      13.1395      0.00000
     20      13.4467      0.00000
     21      16.8187      0.00000
     22      17.3586      0.00000
     23      18.7175      0.00000
     24      19.8532      0.00000
     25      20.4747      0.00000
     26      20.9428      0.00000
     27      23.6048      0.00000
     28      26.4072      0.00000
     29      26.8392      0.00000
     30      29.4304      0.00000
     31      30.5116      0.00000
     32      32.7928      0.00000

 k-point   315 :       0.2500   -0.1250   -0.3333
  band No.  band energies     occupation 
      1      -8.6050      2.00000
      2      -8.0501      2.00000
      3      -5.9202      2.00000
      4      -5.8590      2.00000
      5      -5.8062      2.00000
      6      -5.7424      2.00000
      7      -5.6885      2.00000
      8      -5.6242      2.00000
      9      -5.5495      2.00000
     10      -5.4417      2.00000
     11      -5.2944      2.00000
     12      -4.5163      2.00000
     13       2.1680      2.00000
     14       3.7074      2.00000
     15       4.2310      2.00000
     16       6.3551      2.00000
     17       6.6209      2.00000
     18       7.3510      2.00000
     19      13.7164      0.00000
     20      14.2117      0.00000
     21      15.6048      0.00000
     22      16.5475      0.00000
     23      18.8650      0.00000
     24      19.3414      0.00000
     25      20.2511      0.00000
     26      20.9834      0.00000
     27      24.9349      0.00000
     28      26.5871      0.00000
     29      27.0364      0.00000
     30      28.1310      0.00000
     31      31.5344      0.00000
     32      32.3763      0.00000

 k-point   316 :       0.3750   -0.1250   -0.3333
  band No.  band energies     occupation 
      1      -8.0367      2.00000
      2      -7.7331      2.00000
      3      -5.9349      2.00000
      4      -5.8869      2.00000
      5      -5.8592      2.00000
      6      -5.8017      2.00000
      7      -5.6545      2.00000
      8      -5.5537      2.00000
      9      -5.4672      2.00000
     10      -5.4191      2.00000
     11      -5.0197      2.00000
     12      -4.2306      2.00000
     13       0.7156      2.00000
     14       1.7418      2.00000
     15       4.6505      2.00000
     16       6.3729      2.00000
     17       6.9302      2.00000
     18       7.2170      2.00000
     19      13.7305      0.00000
     20      14.4703      0.00000
     21      15.1563      0.00000
     22      16.3150      0.00000
     23      18.2800      0.00000
     24      18.7577      0.00000
     25      20.9886      0.00000
     26      21.1874      0.00000
     27      25.8419      0.00000
     28      26.4040      0.00000
     29      27.8815      0.00000
     30      29.4985      0.00000
     31      31.2077      0.00000
     32      31.7226      0.00000

 k-point   317 :       0.5000   -0.1250   -0.3333
  band No.  band energies     occupation 
      1      -7.6502      2.00000
      2      -7.5614      2.00000
      3      -5.9256      2.00000
      4      -5.8711      2.00000
      5      -5.8473      2.00000
      6      -5.8236      2.00000
      7      -5.6450      2.00000
      8      -5.5379      2.00000
      9      -5.4463      2.00000
     10      -5.3866      2.00000
     11      -4.5878      2.00000
     12      -4.3592      2.00000
     13       0.0371      2.00000
     14       0.4417      2.00000
     15       5.3809      2.00000
     16       5.8601      2.00000
     17       6.7441      2.00000
     18       7.0641      2.00000
     19      13.8732      0.00000
     20      14.0756      0.00000
     21      16.1080      0.00000
     22      16.8167      0.00000
     23      18.0649      0.00000
     24      18.6377      0.00000
     25      20.5236      0.00000
     26      22.2818      0.00000
     27      25.0571      0.00000
     28      26.0523      0.00000
     29      28.8076      0.00000
     30      29.8266      0.00000
     31      31.3198      0.00000
     32      31.9695      0.00000

 k-point   318 :      -0.3750   -0.1250   -0.3333
  band No.  band energies     occupation 
      1      -7.7495      2.00000
      2      -7.5754      2.00000
      3      -5.9172      2.00000
      4      -5.8588      2.00000
      5      -5.7901      2.00000
      6      -5.7632      2.00000
      7      -5.6536      2.00000
      8      -5.5490      2.00000
      9      -5.4923      2.00000
     10      -5.4337      2.00000
     11      -5.0360      2.00000
     12      -4.3761      2.00000
     13       0.2865      2.00000
     14       1.0311      2.00000
     15       4.8777      2.00000
     16       6.1060      2.00000
     17       6.3570      2.00000
     18       6.9261      2.00000
     19      13.8595      0.00000
     20      14.9501      0.00000
     21      16.4541      0.00000
     22      17.4110      0.00000
     23      17.9492      0.00000
     24      18.7208      0.00000
     25      21.2669      0.00000
     26      23.0145      0.00000
     27      24.1703      0.00000
     28      26.4768      0.00000
     29      28.4705      0.00000
     30      29.7034      0.00000
     31      30.6705      0.00000
     32      31.2174      0.00000

 k-point   319 :      -0.2500   -0.1250   -0.3333
  band No.  band energies     occupation 
      1      -8.2628      2.00000
      2      -7.8150      2.00000
      3      -5.9035      2.00000
      4      -5.8671      2.00000
      5      -5.7930      2.00000
      6      -5.7099      2.00000
      7      -5.6339      2.00000
      8      -5.5973      2.00000
      9      -5.5768      2.00000
     10      -5.5022      2.00000
     11      -5.3694      2.00000
     12      -4.5925      2.00000
     13       1.3539      2.00000
     14       2.5875      2.00000
     15       4.5352      2.00000
     16       5.6868      2.00000
     17       6.5011      2.00000
     18       7.0954      2.00000
     19      14.1392      0.00000
     20      15.7078      0.00000
     21      16.2769      0.00000
     22      17.4382      0.00000
     23      17.7734      0.00000
     24      18.4324      0.00000
     25      23.1354      0.00000
     26      23.8026      0.00000
     27      24.0159      0.00000
     28      27.2863      0.00000
     29      28.1023      0.00000
     30      28.6691      0.00000
     31      29.0086      0.00000
     32      31.0790      0.00000

 k-point   320 :      -0.1250   -0.1250   -0.3333
  band No.  band energies     occupation 
      1      -8.8222      2.00000
      2      -8.1510      2.00000
      3      -5.9420      2.00000
      4      -5.8867      2.00000
      5      -5.8482      2.00000
      6      -5.6656      2.00000
      7      -5.6163      2.00000
      8      -5.6136      2.00000
      9      -5.5315      2.00000
     10      -5.5034      2.00000
     11      -5.4600      2.00000
     12      -4.8112      2.00000
     13       2.1046      2.00000
     14       4.0001      2.00000
     15       4.7235      2.00000
     16       6.0759      2.00000
     17       7.0811      2.00000
     18       7.0855      2.00000
     19      13.7725      0.00000
     20      14.2577      0.00000
     21      17.2331      0.00000
     22      17.2947      0.00000
     23      17.9563      0.00000
     24      18.3636      0.00000
     25      23.6932      0.00000
     26      23.9565      0.00000
     27      25.2497      0.00000
     28      25.3479      0.00000
     29      27.1322      0.00000
     30      29.2813      0.00000
     31      29.9469      0.00000
     32      31.0766      0.00000

 k-point   321 :       0.0000   -0.0000   -0.1667
  band No.  band energies     occupation 
      1      -9.6500      2.00000
      2      -8.2923      2.00000
      3      -5.9643      2.00000
      4      -5.9123      2.00000
      5      -5.8601      2.00000
      6      -5.6573      2.00000
      7      -5.6476      2.00000
      8      -5.5623      2.00000
      9      -5.5606      2.00000
     10      -5.4455      2.00000
     11      -5.3807      2.00000
     12      -4.2403      2.00000
     13       0.7125      2.00000
     14       5.1837      2.00000
     15       6.9145      2.00000
     16       6.9272      2.00000
     17       7.3690      2.00000
     18       8.1954      2.00000
     19      11.4515      0.00000
     20      11.6108      0.00000
     21      17.5367      0.00000
     22      18.9256      0.00000
     23      19.3161      0.00000
     24      21.2494      0.00000
     25      22.2611      0.00000
     26      22.3984      0.00000
     27      22.6338      0.00000
     28      26.1245      0.00000
     29      26.8591      0.00000
     30      27.5540      0.00000
     31      27.8331      0.00000
     32      30.4844      0.00000

 k-point   322 :       0.1250    0.0000   -0.1667
  band No.  band energies     occupation 
      1      -9.4337      2.00000
      2      -8.1767      2.00000
      3      -5.9628      2.00000
      4      -5.8958      2.00000
      5      -5.8357      2.00000
      6      -5.6660      2.00000
      7      -5.6483      2.00000
      8      -5.5894      2.00000
      9      -5.5552      2.00000
     10      -5.4787      2.00000
     11      -5.4050      2.00000
     12      -4.1480      2.00000
     13       0.8915      2.00000
     14       4.3983      2.00000
     15       5.7929      2.00000
     16       6.6897      2.00000
     17       7.5166      2.00000
     18       8.0014      2.00000
     19      12.2867      0.00000
     20      12.4531      0.00000
     21      17.6730      0.00000
     22      18.5304      0.00000
     23      18.9820      0.00000
     24      20.1507      0.00000
     25      22.1594      0.00000
     26      22.6885      0.00000
     27      23.3279      0.00000
     28      24.9623      0.00000
     29      27.1470      0.00000
     30      28.3032      0.00000
     31      29.7676      0.00000
     32      31.3079      0.00000

 k-point   323 :       0.2500    0.0000   -0.1667
  band No.  band energies     occupation 
      1      -8.8413      2.00000
      2      -7.8953      2.00000
      3      -5.9644      2.00000
      4      -5.8844      2.00000
      5      -5.7891      2.00000
      6      -5.6668      2.00000
      7      -5.6578      2.00000
      8      -5.6174      2.00000
      9      -5.5701      2.00000
     10      -5.4950      2.00000
     11      -5.4092      2.00000
     12      -3.9856      2.00000
     13       1.1165      2.00000
     14       2.9319      2.00000
     15       3.8486      2.00000
     16       6.7507      2.00000
     17       7.1567      2.00000
     18       7.9707      2.00000
     19      13.3064      0.00000
     20      14.0906      0.00000
     21      16.9399      0.00000
     22      17.6268      0.00000
     23      18.5016      0.00000
     24      19.3009      0.00000
     25      22.2353      0.00000
     26      22.9783      0.00000
     27      23.8047      0.00000
     28      25.8950      0.00000
     29      27.2193      0.00000
     30      29.1108      0.00000
     31      29.9464      0.00000
     32      30.6241      0.00000

 k-point   324 :       0.3750    0.0000   -0.1667
  band No.  band energies     occupation 
      1      -8.1050      2.00000
      2      -7.6280      2.00000
      3      -5.9404      2.00000
      4      -5.8539      2.00000
      5      -5.8031      2.00000
      6      -5.7378      2.00000
      7      -5.6518      2.00000
      8      -5.6144      2.00000
      9      -5.5081      2.00000
     10      -5.4308      2.00000
     11      -5.2764      2.00000
     12      -4.0639      2.00000
     13       0.4341      2.00000
     14       1.9512      2.00000
     15       3.2639      2.00000
     16       6.0813      2.00000
     17       7.0864      2.00000
     18       8.0392      2.00000
     19      13.9921      0.00000
     20      15.2533      0.00000
     21      16.2782      0.00000
     22      17.2705      0.00000
     23      17.9746      0.00000
     24      18.4045      0.00000
     25      22.3730      0.00000
     26      23.2088      0.00000
     27      23.6831      0.00000
     28      26.7021      0.00000
     29      27.8448      0.00000
     30      28.9191      0.00000
     31      30.2766      0.00000
     32      30.9284      0.00000

 k-point   325 :       0.5000    0.0000   -0.1667
  band No.  band energies     occupation 
      1      -7.7174      2.00000
      2      -7.5592      2.00000
      3      -5.9245      2.00000
      4      -5.8295      2.00000
      5      -5.7805      2.00000
      6      -5.7749      2.00000
      7      -5.6385      2.00000
      8      -5.6304      2.00000
      9      -5.4717      2.00000
     10      -5.4278      2.00000
     11      -4.7805      2.00000
     12      -4.6035      2.00000
     13       0.3646      2.00000
     14       0.8650      2.00000
     15       4.1540      2.00000
     16       5.0937      2.00000
     17       7.2154      2.00000
     18       8.0577      2.00000
     19      14.5719      0.00000
     20      14.7053      0.00000
     21      17.0256      0.00000
     22      17.1916      0.00000
     23      17.8208      0.00000
     24      17.8685      0.00000
     25      22.0075      0.00000
     26      22.6858      0.00000
     27      24.6852      0.00000
     28      25.6563      0.00000
     29      28.3592      0.00000
     30      29.2997      0.00000
     31      30.4255      0.00000
     32      31.2468      0.00000

 k-point   326 :      -0.3750   -0.0000   -0.1667
  band No.  band energies     occupation 
      1      -8.1050      2.00000
      2      -7.6280      2.00000
      3      -5.9404      2.00000
      4      -5.8539      2.00000
      5      -5.8031      2.00000
      6      -5.7378      2.00000
      7      -5.6518      2.00000
      8      -5.6144      2.00000
      9      -5.5081      2.00000
     10      -5.4308      2.00000
     11      -5.2764      2.00000
     12      -4.0639      2.00000
     13       0.4341      2.00000
     14       1.9513      2.00000
     15       3.2640      2.00000
     16       6.0813      2.00000
     17       7.0864      2.00000
     18       8.0392      2.00000
     19      13.9919      0.00000
     20      15.2535      0.00000
     21      16.2784      0.00000
     22      17.2705      0.00000
     23      17.9745      0.00000
     24      18.4044      0.00000
     25      22.3731      0.00000
     26      23.2087      0.00000
     27      23.6832      0.00000
     28      26.7020      0.00000
     29      27.8448      0.00000
     30      28.9191      0.00000
     31      30.2767      0.00000
     32      30.9282      0.00000

 k-point   327 :      -0.2500   -0.0000   -0.1667
  band No.  band energies     occupation 
      1      -8.8413      2.00000
      2      -7.8953      2.00000
      3      -5.9644      2.00000
      4      -5.8844      2.00000
      5      -5.7891      2.00000
      6      -5.6669      2.00000
      7      -5.6578      2.00000
      8      -5.6173      2.00000
      9      -5.5700      2.00000
     10      -5.4950      2.00000
     11      -5.4092      2.00000
     12      -3.9857      2.00000
     13       1.1164      2.00000
     14       2.9319      2.00000
     15       3.8486      2.00000
     16       6.7507      2.00000
     17       7.1567      2.00000
     18       7.9707      2.00000
     19      13.3064      0.00000
     20      14.0906      0.00000
     21      16.9401      0.00000
     22      17.6268      0.00000
     23      18.5015      0.00000
     24      19.3008      0.00000
     25      22.2354      0.00000
     26      22.9784      0.00000
     27      23.8047      0.00000
     28      25.8950      0.00000
     29      27.2193      0.00000
     30      29.1107      0.00000
     31      29.9464      0.00000
     32      30.6241      0.00000

 k-point   328 :      -0.1250   -0.0000   -0.1667
  band No.  band energies     occupation 
      1      -9.4337      2.00000
      2      -8.1768      2.00000
      3      -5.9628      2.00000
      4      -5.8958      2.00000
      5      -5.8357      2.00000
      6      -5.6660      2.00000
      7      -5.6483      2.00000
      8      -5.5894      2.00000
      9      -5.5552      2.00000
     10      -5.4787      2.00000
     11      -5.4050      2.00000
     12      -4.1480      2.00000
     13       0.8915      2.00000
     14       4.3983      2.00000
     15       5.7930      2.00000
     16       6.6897      2.00000
     17       7.5166      2.00000
     18       8.0014      2.00000
     19      12.2867      0.00000
     20      12.4531      0.00000
     21      17.6731      0.00000
     22      18.5304      0.00000
     23      18.9819      0.00000
     24      20.1507      0.00000
     25      22.1595      0.00000
     26      22.6884      0.00000
     27      23.3278      0.00000
     28      24.9624      0.00000
     29      27.1470      0.00000
     30      28.3032      0.00000
     31      29.7676      0.00000
     32      31.3080      0.00000

 k-point   329 :       0.0000    0.1250   -0.1667
  band No.  band energies     occupation 
      1      -9.4337      2.00000
      2      -8.1768      2.00000
      3      -5.9628      2.00000
      4      -5.8958      2.00000
      5      -5.8357      2.00000
      6      -5.6660      2.00000
      7      -5.6483      2.00000
      8      -5.5894      2.00000
      9      -5.5552      2.00000
     10      -5.4787      2.00000
     11      -5.4050      2.00000
     12      -4.1480      2.00000
     13       0.8915      2.00000
     14       4.3983      2.00000
     15       5.7930      2.00000
     16       6.6897      2.00000
     17       7.5166      2.00000
     18       8.0014      2.00000
     19      12.2867      0.00000
     20      12.4531      0.00000
     21      17.6731      0.00000
     22      18.5304      0.00000
     23      18.9819      0.00000
     24      20.1507      0.00000
     25      22.1595      0.00000
     26      22.6884      0.00000
     27      23.3278      0.00000
     28      24.9624      0.00000
     29      27.1470      0.00000
     30      28.3032      0.00000
     31      29.7676      0.00000
     32      31.3080      0.00000

 k-point   330 :       0.1250    0.1250   -0.1667
  band No.  band energies     occupation 
      1      -9.1240      2.00000
      2      -8.0117      2.00000
      3      -5.9492      2.00000
      4      -5.8536      2.00000
      5      -5.8527      2.00000
      6      -5.6743      2.00000
      7      -5.6410      2.00000
      8      -5.5888      2.00000
      9      -5.5600      2.00000
     10      -5.5010      2.00000
     11      -5.4579      2.00000
     12      -4.0926      2.00000
     13       1.0750      2.00000
     14       3.8474      2.00000
     15       4.8618      2.00000
     16       5.7545      2.00000
     17       7.4373      2.00000
     18       7.4848      2.00000
     19      13.1624      0.00000
     20      13.8991      0.00000
     21      17.7940      0.00000
     22      18.1141      0.00000
     23      18.9065      0.00000
     24      18.9515      0.00000
     25      22.4447      0.00000
     26      23.5240      0.00000
     27      25.2403      0.00000
     28      25.2689      0.00000
     29      27.9112      0.00000
     30      28.0578      0.00000
     31      29.3524      0.00000
     32      31.6697      0.00000

 k-point   331 :       0.2500    0.1250   -0.1667
  band No.  band energies     occupation 
      1      -8.5058      2.00000
      2      -7.7545      2.00000
      3      -5.8937      2.00000
      4      -5.8323      2.00000
      5      -5.7844      2.00000
      6      -5.6887      2.00000
      7      -5.6730      2.00000
      8      -5.6053      2.00000
      9      -5.5796      2.00000
     10      -5.5032      2.00000
     11      -5.4460      2.00000
     12      -3.9679      2.00000
     13       1.1468      2.00000
     14       3.1182      2.00000
     15       3.4105      2.00000
     16       5.2667      2.00000
     17       6.7945      2.00000
     18       7.1227      2.00000
     19      14.1473      0.00000
     20      15.5082      0.00000
     21      16.9846      0.00000
     22      17.6029      0.00000
     23      18.3526      0.00000
     24      19.2932      0.00000
     25      21.8544      0.00000
     26      23.6160      0.00000
     27      23.8759      0.00000
     28      26.5653      0.00000
     29      27.7417      0.00000
     30      29.0705      0.00000
     31      31.2298      0.00000
     32      31.9345      0.00000

 k-point   332 :       0.3750    0.1250   -0.1667
  band No.  band energies     occupation 
      1      -7.8934      2.00000
      2      -7.5910      2.00000
      3      -5.9054      2.00000
      4      -5.8008      2.00000
      5      -5.7682      2.00000
      6      -5.7399      2.00000
      7      -5.6791      2.00000
      8      -5.5813      2.00000
      9      -5.5022      2.00000
     10      -5.4404      2.00000
     11      -5.1608      2.00000
     12      -4.0383      2.00000
     13       0.5726      2.00000
     14       1.7744      2.00000
     15       3.6363      2.00000
     16       5.6115      2.00000
     17       5.8382      2.00000
     18       7.1475      2.00000
     19      14.4460      0.00000
     20      16.0500      0.00000
     21      16.4005      0.00000
     22      16.9115      0.00000
     23      18.2439      0.00000
     24      19.2099      0.00000
     25      20.7084      0.00000
     26      23.1252      0.00000
     27      23.5771      0.00000
     28      27.6444      0.00000
     29      28.4759      0.00000
     30      29.8469      0.00000
     31      30.6451      0.00000
     32      31.7521      0.00000

 k-point   333 :       0.5000    0.1250   -0.1667
  band No.  band energies     occupation 
      1      -7.7568      2.00000
      2      -7.6013      2.00000
      3      -5.9132      2.00000
      4      -5.8499      2.00000
      5      -5.8206      2.00000
      6      -5.7669      2.00000
      7      -5.6465      2.00000
      8      -5.5591      2.00000
      9      -5.4801      2.00000
     10      -5.4109      2.00000
     11      -4.6258      2.00000
     12      -4.2629      2.00000
     13       0.5125      2.00000
     14       1.1165      2.00000
     15       4.1620      2.00000
     16       5.1109      2.00000
     17       6.3776      2.00000
     18       7.3105      2.00000
     19      14.5521      0.00000
     20      15.1424      0.00000
     21      16.0332      0.00000
     22      16.7975      0.00000
     23      17.6894      0.00000
     24      18.1343      0.00000
     25      21.1151      0.00000
     26      23.2356      0.00000
     27      24.4926      0.00000
     28      26.3275      0.00000
     29      28.4149      0.00000
     30      30.0151      0.00000
     31      31.2419      0.00000
     32      31.8033      0.00000

 k-point   334 :      -0.3750    0.1250   -0.1667
  band No.  band energies     occupation 
      1      -8.2277      2.00000
      2      -7.7123      2.00000
      3      -5.9337      2.00000
      4      -5.8579      2.00000
      5      -5.8398      2.00000
      6      -5.7452      2.00000
      7      -5.6509      2.00000
      8      -5.5576      2.00000
      9      -5.5141      2.00000
     10      -5.4196      2.00000
     11      -5.1449      2.00000
     12      -3.7168      2.00000
     13       0.7658      2.00000
     14       2.4550      2.00000
     15       3.1666      2.00000
     16       6.1056      2.00000
     17       6.8497      2.00000
     18       7.3392      2.00000
     19      14.1201      0.00000
     20      14.5941      0.00000
     21      15.6360      0.00000
     22      16.6612      0.00000
     23      17.8053      0.00000
     24      18.1239      0.00000
     25      21.9166      0.00000
     26      22.3206      0.00000
     27      25.2025      0.00000
     28      25.9601      0.00000
     29      27.1537      0.00000
     30      29.5360      0.00000
     31      30.8380      0.00000
     32      32.2968      0.00000

 k-point   335 :      -0.2500    0.1250   -0.1667
  band No.  band energies     occupation 
      1      -8.8748      2.00000
      2      -7.9503      2.00000
      3      -5.9266      2.00000
      4      -5.8505      2.00000
      5      -5.7749      2.00000
      6      -5.7271      2.00000
      7      -5.6655      2.00000
      8      -5.6023      2.00000
      9      -5.5793      2.00000
     10      -5.4542      2.00000
     11      -5.3726      2.00000
     12      -3.7994      2.00000
     13       1.3792      2.00000
     14       3.2417      2.00000
     15       4.4364      2.00000
     16       6.3022      2.00000
     17       6.8317      2.00000
     18       7.5242      2.00000
     19      13.4393      0.00000
     20      13.6717      0.00000
     21      16.6847      0.00000
     22      17.4533      0.00000
     23      18.4278      0.00000
     24      18.9930      0.00000
     25      20.8525      0.00000
     26      21.3449      0.00000
     27      24.4295      0.00000
     28      25.7755      0.00000
     29      27.1795      0.00000
     30      28.5221      0.00000
     31      30.0812      0.00000
     32      32.7218      0.00000

 k-point   336 :      -0.1250    0.1250   -0.1667
  band No.  band energies     occupation 
      1      -9.3382      2.00000
      2      -8.1481      2.00000
      3      -5.9132      2.00000
      4      -5.8902      2.00000
      5      -5.7998      2.00000
      6      -5.6983      2.00000
      7      -5.6537      2.00000
      8      -5.6223      2.00000
      9      -5.5773      2.00000
     10      -5.4793      2.00000
     11      -5.3833      2.00000
     12      -4.0341      2.00000
     13       1.0399      2.00000
     14       4.5912      2.00000
     15       6.1098      2.00000
     16       6.4044      2.00000
     17       6.5115      2.00000
     18       7.8298      2.00000
     19      12.6310      0.00000
     20      12.7840      0.00000
     21      18.0046      0.00000
     22      18.3429      0.00000
     23      18.9201      0.00000
     24      20.1343      0.00000
     25      20.4333      0.00000
     26      20.9635      0.00000
     27      23.0939      0.00000
     28      25.2448      0.00000
     29      27.7295      0.00000
     30      28.9781      0.00000
     31      29.4789      0.00000
     32      30.7356      0.00000

 k-point   337 :       0.0000    0.2500   -0.1667
  band No.  band energies     occupation 
      1      -8.8413      2.00000
      2      -7.8953      2.00000
      3      -5.9644      2.00000
      4      -5.8844      2.00000
      5      -5.7891      2.00000
      6      -5.6669      2.00000
      7      -5.6578      2.00000
      8      -5.6173      2.00000
      9      -5.5700      2.00000
     10      -5.4950      2.00000
     11      -5.4092      2.00000
     12      -3.9857      2.00000
     13       1.1164      2.00000
     14       2.9319      2.00000
     15       3.8486      2.00000
     16       6.7507      2.00000
     17       7.1567      2.00000
     18       7.9707      2.00000
     19      13.3064      0.00000
     20      14.0906      0.00000
     21      16.9401      0.00000
     22      17.6268      0.00000
     23      18.5015      0.00000
     24      19.3008      0.00000
     25      22.2354      0.00000
     26      22.9784      0.00000
     27      23.8047      0.00000
     28      25.8950      0.00000
     29      27.2193      0.00000
     30      29.1107      0.00000
     31      29.9464      0.00000
     32      30.6241      0.00000

 k-point   338 :       0.1250    0.2500   -0.1667
  band No.  band energies     occupation 
      1      -8.5058      2.00000
      2      -7.7545      2.00000
      3      -5.8937      2.00000
      4      -5.8323      2.00000
      5      -5.7844      2.00000
      6      -5.6887      2.00000
      7      -5.6730      2.00000
      8      -5.6053      2.00000
      9      -5.5796      2.00000
     10      -5.5032      2.00000
     11      -5.4460      2.00000
     12      -3.9679      2.00000
     13       1.1467      2.00000
     14       3.1182      2.00000
     15       3.4106      2.00000
     16       5.2667      2.00000
     17       6.7944      2.00000
     18       7.1228      2.00000
     19      14.1472      0.00000
     20      15.5082      0.00000
     21      16.9847      0.00000
     22      17.6030      0.00000
     23      18.3525      0.00000
     24      19.2931      0.00000
     25      21.8544      0.00000
     26      23.6161      0.00000
     27      23.8759      0.00000
     28      26.5653      0.00000
     29      27.7417      0.00000
     30      29.0704      0.00000
     31      31.2301      0.00000
     32      31.9343      0.00000

 k-point   339 :       0.2500    0.2500   -0.1667
  band No.  band energies     occupation 
      1      -8.0396      2.00000
      2      -7.6370      2.00000
      3      -5.8873      2.00000
      4      -5.7745      2.00000
      5      -5.7567      2.00000
      6      -5.6686      2.00000
      7      -5.6279      2.00000
      8      -5.6228      2.00000
      9      -5.5399      2.00000
     10      -5.4937      2.00000
     11      -5.2868      2.00000
     12      -3.7628      2.00000
     13       1.3457      2.00000
     14       2.8316      2.00000
     15       3.4076      2.00000
     16       3.9247      2.00000
     17       5.8258      2.00000
     18       6.3437      2.00000
     19      15.0195      0.00000
     20      15.6556      0.00000
     21      16.3304      0.00000
     22      17.5804      0.00000
     23      18.2701      0.00000
     24      18.9220      0.00000
     25      22.1392      0.00000
     26      22.3980      0.00000
     27      23.3322      0.00000
     28      27.4244      0.00000
     29      29.3781      0.00000
     30      29.8922      0.00000
     31      31.3738      0.00000
     32      32.9427      0.00000

 k-point   340 :       0.3750    0.2500   -0.1667
  band No.  band energies     occupation 
      1      -7.7487      2.00000
      2      -7.6517      2.00000
      3      -5.9420      2.00000
      4      -5.8507      2.00000
      5      -5.7681      2.00000
      6      -5.6541      2.00000
      7      -5.6051      2.00000
      8      -5.5405      2.00000
      9      -5.4865      2.00000
     10      -5.4343      2.00000
     11      -4.5391      2.00000
     12      -3.6635      2.00000
     13       1.1612      2.00000
     14       1.8689      2.00000
     15       3.0926      2.00000
     16       4.9417      2.00000
     17       5.2587      2.00000
     18       5.7734      2.00000
     19      14.1779      0.00000
     20      14.8590      0.00000
     21      15.3367      0.00000
     22      17.0787      0.00000
     23      18.2364      0.00000
     24      19.0449      0.00000
     25      21.4757      0.00000
     26      23.0009      0.00000
     27      24.0503      0.00000
     28      27.1161      0.00000
     29      29.1120      0.00000
     30      30.2590      0.00000
     31      31.1311      0.00000
     32      32.8415      0.00000

 k-point   341 :       0.5000    0.2500   -0.1667
  band No.  band energies     occupation 
      1      -7.8592      2.00000
      2      -7.6955      2.00000
      3      -5.9563      2.00000
      4      -5.9068      2.00000
      5      -5.7540      2.00000
      6      -5.6644      2.00000
      7      -5.6144      2.00000
      8      -5.5161      2.00000
      9      -5.4500      2.00000
     10      -5.3867      2.00000
     11      -4.1903      2.00000
     12      -3.4941      2.00000
     13       0.9835      2.00000
     14       1.6706      2.00000
     15       3.8877      2.00000
     16       4.3656      2.00000
     17       5.6810      2.00000
     18       6.2486      2.00000
     19      12.7008      0.00000
     20      13.5090      0.00000
     21      15.2203      0.00000
     22      16.6091      0.00000
     23      18.3051      0.00000
     24      19.4049      0.00000
     25      21.4914      0.00000
     26      22.6942      0.00000
     27      24.1825      0.00000
     28      26.6170      0.00000
     29      29.0557      0.00000
     30      30.5547      0.00000
     31      31.0981      0.00000
     32      33.5462      0.00000

 k-point   342 :      -0.3750    0.2500   -0.1667
  band No.  band energies     occupation 
      1      -8.2131      2.00000
      2      -7.7846      2.00000
      3      -5.9232      2.00000
      4      -5.8934      2.00000
      5      -5.7600      2.00000
      6      -5.6750      2.00000
      7      -5.6306      2.00000
      8      -5.5356      2.00000
      9      -5.4706      2.00000
     10      -5.3916      2.00000
     11      -4.8616      2.00000
     12      -3.1785      2.00000
     13       1.5328      2.00000
     14       2.9315      2.00000
     15       3.2152      2.00000
     16       5.0456      2.00000
     17       5.5940      2.00000
     18       6.8986      2.00000
     19      12.1601      0.00000
     20      12.8637      0.00000
     21      15.8367      0.00000
     22      16.6873      0.00000
     23      17.9068      0.00000
     24      19.6454      0.00000
     25      21.3474      0.00000
     26      21.7969      0.00000
     27      24.3063      0.00000
     28      26.3258      0.00000
     29      27.7797      0.00000
     30      30.3045      0.00000
     31      31.5323      0.00000
     32      33.2729      0.00000

 k-point   343 :      -0.2500    0.2500   -0.1667
  band No.  band energies     occupation 
      1      -8.6173      2.00000
      2      -7.8961      2.00000
      3      -5.8733      2.00000
      4      -5.8439      2.00000
      5      -5.7933      2.00000
      6      -5.6693      2.00000
      7      -5.6494      2.00000
      8      -5.6103      2.00000
      9      -5.5661      2.00000
     10      -5.3841      2.00000
     11      -5.2857      2.00000
     12      -3.4681      2.00000
     13       1.8739      2.00000
     14       3.3576      2.00000
     15       4.4898      2.00000
     16       5.1593      2.00000
     17       5.5961      2.00000
     18       7.2520      2.00000
     19      12.8545      0.00000
     20      13.2460      0.00000
     21      16.4533      0.00000
     22      17.1682      0.00000
     23      17.9525      0.00000
     24      19.8433      0.00000
     25      20.3587      0.00000
     26      20.7269      0.00000
     27      25.1713      0.00000
     28      25.5495      0.00000
     29      26.5680      0.00000
     30      29.0735      0.00000
     31      32.4084      0.00000
     32      33.1868      0.00000

 k-point   344 :      -0.1250    0.2500   -0.1667
  band No.  band energies     occupation 
      1      -8.8748      2.00000
      2      -7.9503      2.00000
      3      -5.9266      2.00000
      4      -5.8505      2.00000
      5      -5.7749      2.00000
      6      -5.7271      2.00000
      7      -5.6655      2.00000
      8      -5.6023      2.00000
      9      -5.5793      2.00000
     10      -5.4542      2.00000
     11      -5.3726      2.00000
     12      -3.7994      2.00000
     13       1.3792      2.00000
     14       3.2417      2.00000
     15       4.4364      2.00000
     16       6.3022      2.00000
     17       6.8317      2.00000
     18       7.5242      2.00000
     19      13.4393      0.00000
     20      13.6717      0.00000
     21      16.6847      0.00000
     22      17.4533      0.00000
     23      18.4278      0.00000
     24      18.9930      0.00000
     25      20.8525      0.00000
     26      21.3449      0.00000
     27      24.4295      0.00000
     28      25.7755      0.00000
     29      27.1795      0.00000
     30      28.5221      0.00000
     31      30.0812      0.00000
     32      32.7218      0.00000

 k-point   345 :       0.0000    0.3750   -0.1667
  band No.  band energies     occupation 
      1      -8.1050      2.00000
      2      -7.6280      2.00000
      3      -5.9404      2.00000
      4      -5.8539      2.00000
      5      -5.8031      2.00000
      6      -5.7378      2.00000
      7      -5.6518      2.00000
      8      -5.6144      2.00000
      9      -5.5081      2.00000
     10      -5.4308      2.00000
     11      -5.2764      2.00000
     12      -4.0639      2.00000
     13       0.4341      2.00000
     14       1.9513      2.00000
     15       3.2640      2.00000
     16       6.0813      2.00000
     17       7.0864      2.00000
     18       8.0392      2.00000
     19      13.9919      0.00000
     20      15.2535      0.00000
     21      16.2784      0.00000
     22      17.2705      0.00000
     23      17.9745      0.00000
     24      18.4044      0.00000
     25      22.3731      0.00000
     26      23.2087      0.00000
     27      23.6832      0.00000
     28      26.7020      0.00000
     29      27.8448      0.00000
     30      28.9191      0.00000
     31      30.2767      0.00000
     32      30.9282      0.00000

 k-point   346 :       0.1250    0.3750   -0.1667
  band No.  band energies     occupation 
      1      -7.8934      2.00000
      2      -7.5910      2.00000
      3      -5.9055      2.00000
      4      -5.8008      2.00000
      5      -5.7682      2.00000
      6      -5.7398      2.00000
      7      -5.6791      2.00000
      8      -5.5813      2.00000
      9      -5.5022      2.00000
     10      -5.4404      2.00000
     11      -5.1608      2.00000
     12      -4.0383      2.00000
     13       0.5725      2.00000
     14       1.7744      2.00000
     15       3.6363      2.00000
     16       5.6115      2.00000
     17       5.8381      2.00000
     18       7.1475      2.00000
     19      14.4459      0.00000
     20      16.0501      0.00000
     21      16.4006      0.00000
     22      16.9115      0.00000
     23      18.2437      0.00000
     24      19.2099      0.00000
     25      20.7083      0.00000
     26      23.1253      0.00000
     27      23.5773      0.00000
     28      27.6444      0.00000
     29      28.4760      0.00000
     30      29.8470      0.00000
     31      30.6451      0.00000
     32      31.7519      0.00000

 k-point   347 :       0.2500    0.3750   -0.1667
  band No.  band energies     occupation 
      1      -7.7487      2.00000
      2      -7.6517      2.00000
      3      -5.9420      2.00000
      4      -5.8507      2.00000
      5      -5.7681      2.00000
      6      -5.6541      2.00000
      7      -5.6051      2.00000
      8      -5.5406      2.00000
      9      -5.4865      2.00000
     10      -5.4343      2.00000
     11      -4.5391      2.00000
     12      -3.6635      2.00000
     13       1.1612      2.00000
     14       1.8689      2.00000
     15       3.0926      2.00000
     16       4.9417      2.00000
     17       5.2586      2.00000
     18       5.7734      2.00000
     19      14.1778      0.00000
     20      14.8591      0.00000
     21      15.3368      0.00000
     22      17.0788      0.00000
     23      18.2363      0.00000
     24      19.0449      0.00000
     25      21.4756      0.00000
     26      23.0010      0.00000
     27      24.0504      0.00000
     28      27.1162      0.00000
     29      29.1120      0.00000
     30      30.2590      0.00000
     31      31.1309      0.00000
     32      32.8415      0.00000

 k-point   348 :       0.3750    0.3750   -0.1667
  band No.  band energies     occupation 
      1      -7.7948      2.00000
      2      -7.7385      2.00000
      3      -5.9688      2.00000
      4      -5.9195      2.00000
      5      -5.7533      2.00000
      6      -5.6172      2.00000
      7      -5.5431      2.00000
      8      -5.5019      2.00000
      9      -5.4055      2.00000
     10      -5.3814      2.00000
     11      -3.5486      2.00000
     12      -3.3028      2.00000
     13       1.4983      2.00000
     14       1.8612      2.00000
     15       2.4204      2.00000
     16       4.3177      2.00000
     17       5.1312      2.00000
     18       5.8051      2.00000
     19      12.1971      0.00000
     20      12.9064      0.00000
     21      14.3852      0.00000
     22      16.7642      0.00000
     23      18.8242      0.00000
     24      19.7403      0.00000
     25      22.4155      0.00000
     26      22.7285      0.00000
     27      24.1242      0.00000
     28      27.0749      0.00000
     29      29.6701      0.00000
     30      30.1636      0.00000
     31      30.6053      0.00000
     32      33.5835      0.00000

 k-point   349 :       0.5000    0.3750   -0.1667
  band No.  band energies     occupation 
      1      -7.9587      2.00000
      2      -7.7865      2.00000
      3      -5.9608      2.00000
      4      -5.9503      2.00000
      5      -5.7248      2.00000
      6      -5.6414      2.00000
      7      -5.5374      2.00000
      8      -5.4924      2.00000
      9      -5.3368      2.00000
     10      -5.3257      2.00000
     11      -3.5692      2.00000
     12      -2.6913      2.00000
     13       1.4046      2.00000
     14       1.6788      2.00000
     15       3.4639      2.00000
     16       4.0677      2.00000
     17       4.7799      2.00000
     18       6.4312      2.00000
     19      10.5627      0.00000
     20      11.5063      0.00000
     21      14.3622      0.00000
     22      16.4985      0.00000
     23      18.9081      0.00000
     24      20.7320      0.00000
     25      21.5313      0.00000
     26      22.3891      0.00000
     27      24.2481      0.00000
     28      27.8680      0.00000
     29      29.2656      0.00000
     30      29.8694      0.00000
     31      31.5889      0.00000
     32      32.6737      0.00000

 k-point   350 :      -0.3750    0.3750   -0.1667
  band No.  band energies     occupation 
      1      -8.1072      2.00000
      2      -7.8114      2.00000
      3      -5.9455      2.00000
      4      -5.9211      2.00000
      5      -5.7384      2.00000
      6      -5.6519      2.00000
      7      -5.5528      2.00000
      8      -5.5073      2.00000
      9      -5.3834      2.00000
     10      -5.3322      2.00000
     11      -4.2953      2.00000
     12      -2.6696      2.00000
     13       2.2514      2.00000
     14       2.2817      2.00000
     15       2.8705      2.00000
     16       4.7640      2.00000
     17       4.7903      2.00000
     18       6.6271      2.00000
     19      10.5449      0.00000
     20      11.4960      0.00000
     21      15.0716      0.00000
     22      16.7511      0.00000
     23      18.0672      0.00000
     24      20.9469      0.00000
     25      21.4614      0.00000
     26      22.0260      0.00000
     27      23.8192      0.00000
     28      27.5518      0.00000
     29      28.4654      0.00000
     30      30.4169      0.00000
     31      31.0823      0.00000
     32      32.7621      0.00000

 k-point   351 :      -0.2500    0.3750   -0.1667
  band No.  band energies     occupation 
      1      -8.2131      2.00000
      2      -7.7846      2.00000
      3      -5.9232      2.00000
      4      -5.8934      2.00000
      5      -5.7600      2.00000
      6      -5.6750      2.00000
      7      -5.6306      2.00000
      8      -5.5356      2.00000
      9      -5.4706      2.00000
     10      -5.3916      2.00000
     11      -4.8616      2.00000
     12      -3.1785      2.00000
     13       1.5328      2.00000
     14       2.9315      2.00000
     15       3.2152      2.00000
     16       5.0456      2.00000
     17       5.5940      2.00000
     18       6.8986      2.00000
     19      12.1601      0.00000
     20      12.8637      0.00000
     21      15.8367      0.00000
     22      16.6873      0.00000
     23      17.9068      0.00000
     24      19.6454      0.00000
     25      21.3474      0.00000
     26      21.7969      0.00000
     27      24.3063      0.00000
     28      26.3258      0.00000
     29      27.7797      0.00000
     30      30.3045      0.00000
     31      31.5323      0.00000
     32      33.2729      0.00000

 k-point   352 :      -0.1250    0.3750   -0.1667
  band No.  band energies     occupation 
      1      -8.2277      2.00000
      2      -7.7123      2.00000
      3      -5.9337      2.00000
      4      -5.8579      2.00000
      5      -5.8398      2.00000
      6      -5.7452      2.00000
      7      -5.6509      2.00000
      8      -5.5576      2.00000
      9      -5.5141      2.00000
     10      -5.4196      2.00000
     11      -5.1449      2.00000
     12      -3.7168      2.00000
     13       0.7658      2.00000
     14       2.4550      2.00000
     15       3.1666      2.00000
     16       6.1056      2.00000
     17       6.8497      2.00000
     18       7.3392      2.00000
     19      14.1201      0.00000
     20      14.5941      0.00000
     21      15.6360      0.00000
     22      16.6612      0.00000
     23      17.8053      0.00000
     24      18.1239      0.00000
     25      21.9166      0.00000
     26      22.3206      0.00000
     27      25.2025      0.00000
     28      25.9601      0.00000
     29      27.1537      0.00000
     30      29.5360      0.00000
     31      30.8380      0.00000
     32      32.2968      0.00000

 k-point   353 :       0.0000    0.5000   -0.1667
  band No.  band energies     occupation 
      1      -7.7174      2.00000
      2      -7.5592      2.00000
      3      -5.9245      2.00000
      4      -5.8295      2.00000
      5      -5.7805      2.00000
      6      -5.7749      2.00000
      7      -5.6385      2.00000
      8      -5.6304      2.00000
      9      -5.4717      2.00000
     10      -5.4278      2.00000
     11      -4.7805      2.00000
     12      -4.6035      2.00000
     13       0.3646      2.00000
     14       0.8650      2.00000
     15       4.1540      2.00000
     16       5.0937      2.00000
     17       7.2154      2.00000
     18       8.0577      2.00000
     19      14.5719      0.00000
     20      14.7053      0.00000
     21      17.0256      0.00000
     22      17.1916      0.00000
     23      17.8208      0.00000
     24      17.8685      0.00000
     25      22.0075      0.00000
     26      22.6858      0.00000
     27      24.6852      0.00000
     28      25.6563      0.00000
     29      28.3592      0.00000
     30      29.2997      0.00000
     31      30.4255      0.00000
     32      31.2468      0.00000

 k-point   354 :       0.1250    0.5000   -0.1667
  band No.  band energies     occupation 
      1      -7.7568      2.00000
      2      -7.6013      2.00000
      3      -5.9132      2.00000
      4      -5.8499      2.00000
      5      -5.8205      2.00000
      6      -5.7669      2.00000
      7      -5.6465      2.00000
      8      -5.5591      2.00000
      9      -5.4801      2.00000
     10      -5.4109      2.00000
     11      -4.6258      2.00000
     12      -4.2629      2.00000
     13       0.5126      2.00000
     14       1.1165      2.00000
     15       4.1620      2.00000
     16       5.1110      2.00000
     17       6.3776      2.00000
     18       7.3105      2.00000
     19      14.5519      0.00000
     20      15.1426      0.00000
     21      16.0334      0.00000
     22      16.7976      0.00000
     23      17.6893      0.00000
     24      18.1343      0.00000
     25      21.1149      0.00000
     26      23.2357      0.00000
     27      24.4928      0.00000
     28      26.3276      0.00000
     29      28.4148      0.00000
     30      30.0152      0.00000
     31      31.2418      0.00000
     32      31.8033      0.00000

 k-point   355 :       0.2500    0.5000   -0.1667
  band No.  band energies     occupation 
      1      -7.8592      2.00000
      2      -7.6955      2.00000
      3      -5.9563      2.00000
      4      -5.9068      2.00000
      5      -5.7540      2.00000
      6      -5.6644      2.00000
      7      -5.6144      2.00000
      8      -5.5161      2.00000
      9      -5.4501      2.00000
     10      -5.3866      2.00000
     11      -4.1903      2.00000
     12      -3.4940      2.00000
     13       0.9836      2.00000
     14       1.6706      2.00000
     15       3.8877      2.00000
     16       4.3656      2.00000
     17       5.6810      2.00000
     18       6.2486      2.00000
     19      12.7007      0.00000
     20      13.5091      0.00000
     21      15.2204      0.00000
     22      16.6092      0.00000
     23      18.3051      0.00000
     24      19.4050      0.00000
     25      21.4912      0.00000
     26      22.6943      0.00000
     27      24.1827      0.00000
     28      26.6169      0.00000
     29      29.0557      0.00000
     30      30.5545      0.00000
     31      31.0979      0.00000
     32      33.5462      0.00000

 k-point   356 :       0.3750    0.5000   -0.1667
  band No.  band energies     occupation 
      1      -7.9587      2.00000
      2      -7.7865      2.00000
      3      -5.9608      2.00000
      4      -5.9503      2.00000
      5      -5.7248      2.00000
      6      -5.6414      2.00000
      7      -5.5374      2.00000
      8      -5.4924      2.00000
      9      -5.3368      2.00000
     10      -5.3257      2.00000
     11      -3.5692      2.00000
     12      -2.6913      2.00000
     13       1.4046      2.00000
     14       1.6789      2.00000
     15       3.4639      2.00000
     16       4.0677      2.00000
     17       4.7798      2.00000
     18       6.4312      2.00000
     19      10.5627      0.00000
     20      11.5063      0.00000
     21      14.3623      0.00000
     22      16.4985      0.00000
     23      18.9082      0.00000
     24      20.7320      0.00000
     25      21.5312      0.00000
     26      22.3891      0.00000
     27      24.2481      0.00000
     28      27.8679      0.00000
     29      29.2656      0.00000
     30      29.8691      0.00000
     31      31.5889      0.00000
     32      32.6737      0.00000

 k-point   357 :       0.5000    0.5000   -0.1667
  band No.  band energies     occupation 
      1      -7.9975      2.00000
      2      -7.8238      2.00000
      3      -5.9798      2.00000
      4      -5.9477      2.00000
      5      -5.7056      2.00000
      6      -5.6494      2.00000
      7      -5.5220      2.00000
      8      -5.4845      2.00000
      9      -5.2843      2.00000
     10      -5.2722      2.00000
     11      -3.1634      2.00000
     12      -2.3610      2.00000
     13       0.9383      2.00000
     14       1.8611      2.00000
     15       3.4979      2.00000
     16       4.3867      2.00000
     17       4.4354      2.00000
     18       6.3619      2.00000
     19       9.7047      0.00000
     20      10.6924      0.00000
     21      13.9872      0.00000
     22      16.3332      0.00000
     23      19.3136      0.00000
     24      20.8169      0.00000
     25      21.7686      0.00000
     26      21.9160      0.00000
     27      24.7666      0.00000
     28      28.6239      0.00000
     29      29.3098      0.00000
     30      29.5682      0.00000
     31      31.7993      0.00000
     32      32.3581      0.00000

 k-point   358 :      -0.3750    0.5000   -0.1667
  band No.  band energies     occupation 
      1      -7.9587      2.00000
      2      -7.7865      2.00000
      3      -5.9608      2.00000
      4      -5.9503      2.00000
      5      -5.7248      2.00000
      6      -5.6414      2.00000
      7      -5.5374      2.00000
      8      -5.4924      2.00000
      9      -5.3368      2.00000
     10      -5.3257      2.00000
     11      -3.5692      2.00000
     12      -2.6913      2.00000
     13       1.4046      2.00000
     14       1.6788      2.00000
     15       3.4639      2.00000
     16       4.0677      2.00000
     17       4.7799      2.00000
     18       6.4312      2.00000
     19      10.5627      0.00000
     20      11.5063      0.00000
     21      14.3622      0.00000
     22      16.4985      0.00000
     23      18.9081      0.00000
     24      20.7320      0.00000
     25      21.5313      0.00000
     26      22.3891      0.00000
     27      24.2481      0.00000
     28      27.8680      0.00000
     29      29.2656      0.00000
     30      29.8694      0.00000
     31      31.5889      0.00000
     32      32.6737      0.00000

 k-point   359 :      -0.2500    0.5000   -0.1667
  band No.  band energies     occupation 
      1      -7.8592      2.00000
      2      -7.6955      2.00000
      3      -5.9563      2.00000
      4      -5.9068      2.00000
      5      -5.7540      2.00000
      6      -5.6644      2.00000
      7      -5.6144      2.00000
      8      -5.5161      2.00000
      9      -5.4500      2.00000
     10      -5.3867      2.00000
     11      -4.1903      2.00000
     12      -3.4941      2.00000
     13       0.9835      2.00000
     14       1.6706      2.00000
     15       3.8877      2.00000
     16       4.3656      2.00000
     17       5.6810      2.00000
     18       6.2486      2.00000
     19      12.7008      0.00000
     20      13.5090      0.00000
     21      15.2203      0.00000
     22      16.6091      0.00000
     23      18.3051      0.00000
     24      19.4049      0.00000
     25      21.4914      0.00000
     26      22.6942      0.00000
     27      24.1825      0.00000
     28      26.6170      0.00000
     29      29.0557      0.00000
     30      30.5547      0.00000
     31      31.0981      0.00000
     32      33.5462      0.00000

 k-point   360 :      -0.1250    0.5000   -0.1667
  band No.  band energies     occupation 
      1      -7.7568      2.00000
      2      -7.6013      2.00000
      3      -5.9132      2.00000
      4      -5.8499      2.00000
      5      -5.8206      2.00000
      6      -5.7669      2.00000
      7      -5.6465      2.00000
      8      -5.5591      2.00000
      9      -5.4801      2.00000
     10      -5.4109      2.00000
     11      -4.6258      2.00000
     12      -4.2629      2.00000
     13       0.5125      2.00000
     14       1.1165      2.00000
     15       4.1620      2.00000
     16       5.1109      2.00000
     17       6.3776      2.00000
     18       7.3105      2.00000
     19      14.5521      0.00000
     20      15.1424      0.00000
     21      16.0332      0.00000
     22      16.7975      0.00000
     23      17.6894      0.00000
     24      18.1343      0.00000
     25      21.1151      0.00000
     26      23.2356      0.00000
     27      24.4926      0.00000
     28      26.3275      0.00000
     29      28.4149      0.00000
     30      30.0151      0.00000
     31      31.2419      0.00000
     32      31.8033      0.00000

 k-point   361 :      -0.0000   -0.3750   -0.1667
  band No.  band energies     occupation 
      1      -8.1050      2.00000
      2      -7.6280      2.00000
      3      -5.9404      2.00000
      4      -5.8539      2.00000
      5      -5.8031      2.00000
      6      -5.7378      2.00000
      7      -5.6518      2.00000
      8      -5.6144      2.00000
      9      -5.5081      2.00000
     10      -5.4308      2.00000
     11      -5.2764      2.00000
     12      -4.0639      2.00000
     13       0.4341      2.00000
     14       1.9512      2.00000
     15       3.2639      2.00000
     16       6.0813      2.00000
     17       7.0864      2.00000
     18       8.0392      2.00000
     19      13.9921      0.00000
     20      15.2533      0.00000
     21      16.2782      0.00000
     22      17.2705      0.00000
     23      17.9746      0.00000
     24      18.4045      0.00000
     25      22.3730      0.00000
     26      23.2088      0.00000
     27      23.6831      0.00000
     28      26.7021      0.00000
     29      27.8448      0.00000
     30      28.9191      0.00000
     31      30.2766      0.00000
     32      30.9284      0.00000

 k-point   362 :       0.1250   -0.3750   -0.1667
  band No.  band energies     occupation 
      1      -8.2277      2.00000
      2      -7.7123      2.00000
      3      -5.9337      2.00000
      4      -5.8579      2.00000
      5      -5.8398      2.00000
      6      -5.7452      2.00000
      7      -5.6509      2.00000
      8      -5.5576      2.00000
      9      -5.5141      2.00000
     10      -5.4196      2.00000
     11      -5.1449      2.00000
     12      -3.7168      2.00000
     13       0.7658      2.00000
     14       2.4549      2.00000
     15       3.1666      2.00000
     16       6.1057      2.00000
     17       6.8497      2.00000
     18       7.3392      2.00000
     19      14.1201      0.00000
     20      14.5941      0.00000
     21      15.6360      0.00000
     22      16.6612      0.00000
     23      17.8053      0.00000
     24      18.1239      0.00000
     25      21.9164      0.00000
     26      22.3208      0.00000
     27      25.2026      0.00000
     28      25.9602      0.00000
     29      27.1536      0.00000
     30      29.5360      0.00000
     31      30.8379      0.00000
     32      32.2969      0.00000

 k-point   363 :       0.2500   -0.3750   -0.1667
  band No.  band energies     occupation 
      1      -8.2131      2.00000
      2      -7.7846      2.00000
      3      -5.9232      2.00000
      4      -5.8934      2.00000
      5      -5.7600      2.00000
      6      -5.6749      2.00000
      7      -5.6306      2.00000
      8      -5.5356      2.00000
      9      -5.4706      2.00000
     10      -5.3915      2.00000
     11      -4.8616      2.00000
     12      -3.1785      2.00000
     13       1.5329      2.00000
     14       2.9315      2.00000
     15       3.2151      2.00000
     16       5.0456      2.00000
     17       5.5940      2.00000
     18       6.8986      2.00000
     19      12.1600      0.00000
     20      12.8637      0.00000
     21      15.8368      0.00000
     22      16.6874      0.00000
     23      17.9068      0.00000
     24      19.6454      0.00000
     25      21.3475      0.00000
     26      21.7967      0.00000
     27      24.3065      0.00000
     28      26.3257      0.00000
     29      27.7796      0.00000
     30      30.3044      0.00000
     31      31.5319      0.00000
     32      33.2729      0.00000

 k-point   364 :       0.3750   -0.3750   -0.1667
  band No.  band energies     occupation 
      1      -8.1072      2.00000
      2      -7.8114      2.00000
      3      -5.9455      2.00000
      4      -5.9211      2.00000
      5      -5.7384      2.00000
      6      -5.6519      2.00000
      7      -5.5528      2.00000
      8      -5.5073      2.00000
      9      -5.3834      2.00000
     10      -5.3322      2.00000
     11      -4.2953      2.00000
     12      -2.6696      2.00000
     13       2.2514      2.00000
     14       2.2817      2.00000
     15       2.8706      2.00000
     16       4.7640      2.00000
     17       4.7902      2.00000
     18       6.6272      2.00000
     19      10.5448      0.00000
     20      11.4961      0.00000
     21      15.0717      0.00000
     22      16.7511      0.00000
     23      18.0674      0.00000
     24      20.9468      0.00000
     25      21.4614      0.00000
     26      22.0260      0.00000
     27      23.8193      0.00000
     28      27.5518      0.00000
     29      28.4653      0.00000
     30      30.4165      0.00000
     31      31.0822      0.00000
     32      32.7622      0.00000

 k-point   365 :       0.5000   -0.3750   -0.1667
  band No.  band energies     occupation 
      1      -7.9587      2.00000
      2      -7.7865      2.00000
      3      -5.9608      2.00000
      4      -5.9503      2.00000
      5      -5.7248      2.00000
      6      -5.6414      2.00000
      7      -5.5374      2.00000
      8      -5.4924      2.00000
      9      -5.3368      2.00000
     10      -5.3257      2.00000
     11      -3.5692      2.00000
     12      -2.6913      2.00000
     13       1.4046      2.00000
     14       1.6789      2.00000
     15       3.4639      2.00000
     16       4.0677      2.00000
     17       4.7798      2.00000
     18       6.4312      2.00000
     19      10.5627      0.00000
     20      11.5063      0.00000
     21      14.3623      0.00000
     22      16.4985      0.00000
     23      18.9082      0.00000
     24      20.7320      0.00000
     25      21.5312      0.00000
     26      22.3891      0.00000
     27      24.2481      0.00000
     28      27.8679      0.00000
     29      29.2656      0.00000
     30      29.8691      0.00000
     31      31.5889      0.00000
     32      32.6737      0.00000

 k-point   366 :      -0.3750   -0.3750   -0.1667
  band No.  band energies     occupation 
      1      -7.7948      2.00000
      2      -7.7385      2.00000
      3      -5.9688      2.00000
      4      -5.9195      2.00000
      5      -5.7533      2.00000
      6      -5.6172      2.00000
      7      -5.5431      2.00000
      8      -5.5019      2.00000
      9      -5.4055      2.00000
     10      -5.3814      2.00000
     11      -3.5486      2.00000
     12      -3.3028      2.00000
     13       1.4983      2.00000
     14       1.8612      2.00000
     15       2.4204      2.00000
     16       4.3177      2.00000
     17       5.1312      2.00000
     18       5.8051      2.00000
     19      12.1971      0.00000
     20      12.9064      0.00000
     21      14.3852      0.00000
     22      16.7642      0.00000
     23      18.8242      0.00000
     24      19.7403      0.00000
     25      22.4155      0.00000
     26      22.7285      0.00000
     27      24.1242      0.00000
     28      27.0749      0.00000
     29      29.6701      0.00000
     30      30.1636      0.00000
     31      30.6053      0.00000
     32      33.5835      0.00000

 k-point   367 :      -0.2500   -0.3750   -0.1667
  band No.  band energies     occupation 
      1      -7.7487      2.00000
      2      -7.6517      2.00000
      3      -5.9420      2.00000
      4      -5.8507      2.00000
      5      -5.7681      2.00000
      6      -5.6541      2.00000
      7      -5.6051      2.00000
      8      -5.5405      2.00000
      9      -5.4865      2.00000
     10      -5.4343      2.00000
     11      -4.5391      2.00000
     12      -3.6635      2.00000
     13       1.1612      2.00000
     14       1.8689      2.00000
     15       3.0926      2.00000
     16       4.9417      2.00000
     17       5.2587      2.00000
     18       5.7734      2.00000
     19      14.1779      0.00000
     20      14.8590      0.00000
     21      15.3367      0.00000
     22      17.0787      0.00000
     23      18.2364      0.00000
     24      19.0449      0.00000
     25      21.4757      0.00000
     26      23.0009      0.00000
     27      24.0503      0.00000
     28      27.1161      0.00000
     29      29.1120      0.00000
     30      30.2590      0.00000
     31      31.1311      0.00000
     32      32.8415      0.00000

 k-point   368 :      -0.1250   -0.3750   -0.1667
  band No.  band energies     occupation 
      1      -7.8934      2.00000
      2      -7.5910      2.00000
      3      -5.9054      2.00000
      4      -5.8008      2.00000
      5      -5.7682      2.00000
      6      -5.7399      2.00000
      7      -5.6791      2.00000
      8      -5.5813      2.00000
      9      -5.5022      2.00000
     10      -5.4404      2.00000
     11      -5.1608      2.00000
     12      -4.0383      2.00000
     13       0.5726      2.00000
     14       1.7744      2.00000
     15       3.6363      2.00000
     16       5.6115      2.00000
     17       5.8382      2.00000
     18       7.1475      2.00000
     19      14.4460      0.00000
     20      16.0500      0.00000
     21      16.4005      0.00000
     22      16.9115      0.00000
     23      18.2439      0.00000
     24      19.2099      0.00000
     25      20.7084      0.00000
     26      23.1252      0.00000
     27      23.5771      0.00000
     28      27.6444      0.00000
     29      28.4759      0.00000
     30      29.8469      0.00000
     31      30.6451      0.00000
     32      31.7521      0.00000

 k-point   369 :      -0.0000   -0.2500   -0.1667
  band No.  band energies     occupation 
      1      -8.8413      2.00000
      2      -7.8953      2.00000
      3      -5.9644      2.00000
      4      -5.8844      2.00000
      5      -5.7891      2.00000
      6      -5.6668      2.00000
      7      -5.6578      2.00000
      8      -5.6174      2.00000
      9      -5.5701      2.00000
     10      -5.4950      2.00000
     11      -5.4092      2.00000
     12      -3.9856      2.00000
     13       1.1165      2.00000
     14       2.9319      2.00000
     15       3.8486      2.00000
     16       6.7507      2.00000
     17       7.1567      2.00000
     18       7.9707      2.00000
     19      13.3064      0.00000
     20      14.0906      0.00000
     21      16.9399      0.00000
     22      17.6268      0.00000
     23      18.5016      0.00000
     24      19.3009      0.00000
     25      22.2353      0.00000
     26      22.9783      0.00000
     27      23.8047      0.00000
     28      25.8950      0.00000
     29      27.2193      0.00000
     30      29.1108      0.00000
     31      29.9464      0.00000
     32      30.6241      0.00000

 k-point   370 :       0.1250   -0.2500   -0.1667
  band No.  band energies     occupation 
      1      -8.8748      2.00000
      2      -7.9503      2.00000
      3      -5.9266      2.00000
      4      -5.8505      2.00000
      5      -5.7749      2.00000
      6      -5.7270      2.00000
      7      -5.6655      2.00000
      8      -5.6024      2.00000
      9      -5.5793      2.00000
     10      -5.4542      2.00000
     11      -5.3726      2.00000
     12      -3.7994      2.00000
     13       1.3792      2.00000
     14       3.2417      2.00000
     15       4.4363      2.00000
     16       6.3023      2.00000
     17       6.8316      2.00000
     18       7.5242      2.00000
     19      13.4393      0.00000
     20      13.6717      0.00000
     21      16.6846      0.00000
     22      17.4533      0.00000
     23      18.4280      0.00000
     24      18.9930      0.00000
     25      20.8526      0.00000
     26      21.3448      0.00000
     27      24.4295      0.00000
     28      25.7754      0.00000
     29      27.1796      0.00000
     30      28.5221      0.00000
     31      30.0811      0.00000
     32      32.7218      0.00000

 k-point   371 :       0.2500   -0.2500   -0.1667
  band No.  band energies     occupation 
      1      -8.6173      2.00000
      2      -7.8961      2.00000
      3      -5.8733      2.00000
      4      -5.8439      2.00000
      5      -5.7933      2.00000
      6      -5.6692      2.00000
      7      -5.6494      2.00000
      8      -5.6103      2.00000
      9      -5.5661      2.00000
     10      -5.3841      2.00000
     11      -5.2857      2.00000
     12      -3.4681      2.00000
     13       1.8739      2.00000
     14       3.3576      2.00000
     15       4.4898      2.00000
     16       5.1592      2.00000
     17       5.5961      2.00000
     18       7.2521      2.00000
     19      12.8544      0.00000
     20      13.2460      0.00000
     21      16.4533      0.00000
     22      17.1683      0.00000
     23      17.9525      0.00000
     24      19.8433      0.00000
     25      20.3587      0.00000
     26      20.7270      0.00000
     27      25.1714      0.00000
     28      25.5496      0.00000
     29      26.5679      0.00000
     30      29.0734      0.00000
     31      32.4081      0.00000
     32      33.1868      0.00000

 k-point   372 :       0.3750   -0.2500   -0.1667
  band No.  band energies     occupation 
      1      -8.2131      2.00000
      2      -7.7846      2.00000
      3      -5.9232      2.00000
      4      -5.8934      2.00000
      5      -5.7600      2.00000
      6      -5.6749      2.00000
      7      -5.6306      2.00000
      8      -5.5356      2.00000
      9      -5.4706      2.00000
     10      -5.3915      2.00000
     11      -4.8616      2.00000
     12      -3.1785      2.00000
     13       1.5329      2.00000
     14       2.9315      2.00000
     15       3.2151      2.00000
     16       5.0456      2.00000
     17       5.5940      2.00000
     18       6.8986      2.00000
     19      12.1600      0.00000
     20      12.8637      0.00000
     21      15.8368      0.00000
     22      16.6874      0.00000
     23      17.9068      0.00000
     24      19.6454      0.00000
     25      21.3475      0.00000
     26      21.7967      0.00000
     27      24.3065      0.00000
     28      26.3257      0.00000
     29      27.7796      0.00000
     30      30.3044      0.00000
     31      31.5319      0.00000
     32      33.2729      0.00000

 k-point   373 :       0.5000   -0.2500   -0.1667
  band No.  band energies     occupation 
      1      -7.8592      2.00000
      2      -7.6955      2.00000
      3      -5.9563      2.00000
      4      -5.9068      2.00000
      5      -5.7540      2.00000
      6      -5.6644      2.00000
      7      -5.6144      2.00000
      8      -5.5161      2.00000
      9      -5.4501      2.00000
     10      -5.3866      2.00000
     11      -4.1903      2.00000
     12      -3.4940      2.00000
     13       0.9836      2.00000
     14       1.6706      2.00000
     15       3.8877      2.00000
     16       4.3656      2.00000
     17       5.6810      2.00000
     18       6.2486      2.00000
     19      12.7007      0.00000
     20      13.5091      0.00000
     21      15.2204      0.00000
     22      16.6092      0.00000
     23      18.3051      0.00000
     24      19.4050      0.00000
     25      21.4912      0.00000
     26      22.6943      0.00000
     27      24.1827      0.00000
     28      26.6169      0.00000
     29      29.0557      0.00000
     30      30.5545      0.00000
     31      31.0979      0.00000
     32      33.5462      0.00000

 k-point   374 :      -0.3750   -0.2500   -0.1667
  band No.  band energies     occupation 
      1      -7.7487      2.00000
      2      -7.6517      2.00000
      3      -5.9420      2.00000
      4      -5.8507      2.00000
      5      -5.7681      2.00000
      6      -5.6541      2.00000
      7      -5.6051      2.00000
      8      -5.5406      2.00000
      9      -5.4865      2.00000
     10      -5.4343      2.00000
     11      -4.5391      2.00000
     12      -3.6635      2.00000
     13       1.1612      2.00000
     14       1.8689      2.00000
     15       3.0926      2.00000
     16       4.9417      2.00000
     17       5.2586      2.00000
     18       5.7734      2.00000
     19      14.1778      0.00000
     20      14.8591      0.00000
     21      15.3368      0.00000
     22      17.0788      0.00000
     23      18.2363      0.00000
     24      19.0449      0.00000
     25      21.4756      0.00000
     26      23.0010      0.00000
     27      24.0504      0.00000
     28      27.1162      0.00000
     29      29.1120      0.00000
     30      30.2590      0.00000
     31      31.1309      0.00000
     32      32.8415      0.00000

 k-point   375 :      -0.2500   -0.2500   -0.1667
  band No.  band energies     occupation 
      1      -8.0396      2.00000
      2      -7.6370      2.00000
      3      -5.8873      2.00000
      4      -5.7745      2.00000
      5      -5.7567      2.00000
      6      -5.6686      2.00000
      7      -5.6279      2.00000
      8      -5.6228      2.00000
      9      -5.5399      2.00000
     10      -5.4937      2.00000
     11      -5.2868      2.00000
     12      -3.7628      2.00000
     13       1.3457      2.00000
     14       2.8316      2.00000
     15       3.4076      2.00000
     16       3.9247      2.00000
     17       5.8258      2.00000
     18       6.3437      2.00000
     19      15.0195      0.00000
     20      15.6556      0.00000
     21      16.3304      0.00000
     22      17.5804      0.00000
     23      18.2701      0.00000
     24      18.9220      0.00000
     25      22.1392      0.00000
     26      22.3980      0.00000
     27      23.3322      0.00000
     28      27.4244      0.00000
     29      29.3781      0.00000
     30      29.8922      0.00000
     31      31.3738      0.00000
     32      32.9427      0.00000

 k-point   376 :      -0.1250   -0.2500   -0.1667
  band No.  band energies     occupation 
      1      -8.5058      2.00000
      2      -7.7545      2.00000
      3      -5.8937      2.00000
      4      -5.8323      2.00000
      5      -5.7844      2.00000
      6      -5.6887      2.00000
      7      -5.6730      2.00000
      8      -5.6053      2.00000
      9      -5.5796      2.00000
     10      -5.5032      2.00000
     11      -5.4460      2.00000
     12      -3.9679      2.00000
     13       1.1468      2.00000
     14       3.1182      2.00000
     15       3.4105      2.00000
     16       5.2667      2.00000
     17       6.7945      2.00000
     18       7.1227      2.00000
     19      14.1473      0.00000
     20      15.5082      0.00000
     21      16.9846      0.00000
     22      17.6029      0.00000
     23      18.3526      0.00000
     24      19.2932      0.00000
     25      21.8544      0.00000
     26      23.6160      0.00000
     27      23.8759      0.00000
     28      26.5653      0.00000
     29      27.7417      0.00000
     30      29.0705      0.00000
     31      31.2298      0.00000
     32      31.9345      0.00000

 k-point   377 :      -0.0000   -0.1250   -0.1667
  band No.  band energies     occupation 
      1      -9.4337      2.00000
      2      -8.1767      2.00000
      3      -5.9628      2.00000
      4      -5.8958      2.00000
      5      -5.8357      2.00000
      6      -5.6660      2.00000
      7      -5.6483      2.00000
      8      -5.5894      2.00000
      9      -5.5552      2.00000
     10      -5.4787      2.00000
     11      -5.4050      2.00000
     12      -4.1480      2.00000
     13       0.8915      2.00000
     14       4.3983      2.00000
     15       5.7929      2.00000
     16       6.6897      2.00000
     17       7.5166      2.00000
     18       8.0014      2.00000
     19      12.2867      0.00000
     20      12.4531      0.00000
     21      17.6730      0.00000
     22      18.5304      0.00000
     23      18.9820      0.00000
     24      20.1507      0.00000
     25      22.1594      0.00000
     26      22.6885      0.00000
     27      23.3279      0.00000
     28      24.9623      0.00000
     29      27.1470      0.00000
     30      28.3032      0.00000
     31      29.7676      0.00000
     32      31.3079      0.00000

 k-point   378 :       0.1250   -0.1250   -0.1667
  band No.  band energies     occupation 
      1      -9.3382      2.00000
      2      -8.1481      2.00000
      3      -5.9132      2.00000
      4      -5.8902      2.00000
      5      -5.7998      2.00000
      6      -5.6983      2.00000
      7      -5.6537      2.00000
      8      -5.6222      2.00000
      9      -5.5773      2.00000
     10      -5.4793      2.00000
     11      -5.3833      2.00000
     12      -4.0341      2.00000
     13       1.0398      2.00000
     14       4.5912      2.00000
     15       6.1098      2.00000
     16       6.4043      2.00000
     17       6.5115      2.00000
     18       7.8298      2.00000
     19      12.6310      0.00000
     20      12.7839      0.00000
     21      18.0045      0.00000
     22      18.3429      0.00000
     23      18.9202      0.00000
     24      20.1343      0.00000
     25      20.4334      0.00000
     26      20.9636      0.00000
     27      23.0940      0.00000
     28      25.2447      0.00000
     29      27.7295      0.00000
     30      28.9780      0.00000
     31      29.4790      0.00000
     32      30.7356      0.00000

 k-point   379 :       0.2500   -0.1250   -0.1667
  band No.  band energies     occupation 
      1      -8.8748      2.00000
      2      -7.9503      2.00000
      3      -5.9266      2.00000
      4      -5.8505      2.00000
      5      -5.7749      2.00000
      6      -5.7270      2.00000
      7      -5.6655      2.00000
      8      -5.6024      2.00000
      9      -5.5793      2.00000
     10      -5.4542      2.00000
     11      -5.3726      2.00000
     12      -3.7994      2.00000
     13       1.3792      2.00000
     14       3.2417      2.00000
     15       4.4363      2.00000
     16       6.3023      2.00000
     17       6.8316      2.00000
     18       7.5242      2.00000
     19      13.4393      0.00000
     20      13.6717      0.00000
     21      16.6846      0.00000
     22      17.4533      0.00000
     23      18.4280      0.00000
     24      18.9930      0.00000
     25      20.8526      0.00000
     26      21.3448      0.00000
     27      24.4295      0.00000
     28      25.7754      0.00000
     29      27.1796      0.00000
     30      28.5221      0.00000
     31      30.0811      0.00000
     32      32.7218      0.00000

 k-point   380 :       0.3750   -0.1250   -0.1667
  band No.  band energies     occupation 
      1      -8.2277      2.00000
      2      -7.7123      2.00000
      3      -5.9337      2.00000
      4      -5.8579      2.00000
      5      -5.8398      2.00000
      6      -5.7452      2.00000
      7      -5.6509      2.00000
      8      -5.5576      2.00000
      9      -5.5141      2.00000
     10      -5.4196      2.00000
     11      -5.1449      2.00000
     12      -3.7168      2.00000
     13       0.7658      2.00000
     14       2.4549      2.00000
     15       3.1666      2.00000
     16       6.1057      2.00000
     17       6.8497      2.00000
     18       7.3392      2.00000
     19      14.1201      0.00000
     20      14.5941      0.00000
     21      15.6360      0.00000
     22      16.6612      0.00000
     23      17.8053      0.00000
     24      18.1239      0.00000
     25      21.9164      0.00000
     26      22.3208      0.00000
     27      25.2026      0.00000
     28      25.9602      0.00000
     29      27.1536      0.00000
     30      29.5360      0.00000
     31      30.8379      0.00000
     32      32.2969      0.00000

 k-point   381 :       0.5000   -0.1250   -0.1667
  band No.  band energies     occupation 
      1      -7.7568      2.00000
      2      -7.6013      2.00000
      3      -5.9132      2.00000
      4      -5.8499      2.00000
      5      -5.8205      2.00000
      6      -5.7669      2.00000
      7      -5.6465      2.00000
      8      -5.5591      2.00000
      9      -5.4801      2.00000
     10      -5.4109      2.00000
     11      -4.6258      2.00000
     12      -4.2629      2.00000
     13       0.5126      2.00000
     14       1.1165      2.00000
     15       4.1620      2.00000
     16       5.1110      2.00000
     17       6.3776      2.00000
     18       7.3105      2.00000
     19      14.5519      0.00000
     20      15.1426      0.00000
     21      16.0334      0.00000
     22      16.7976      0.00000
     23      17.6893      0.00000
     24      18.1343      0.00000
     25      21.1149      0.00000
     26      23.2357      0.00000
     27      24.4928      0.00000
     28      26.3276      0.00000
     29      28.4148      0.00000
     30      30.0152      0.00000
     31      31.2418      0.00000
     32      31.8033      0.00000

 k-point   382 :      -0.3750   -0.1250   -0.1667
  band No.  band energies     occupation 
      1      -7.8934      2.00000
      2      -7.5910      2.00000
      3      -5.9055      2.00000
      4      -5.8008      2.00000
      5      -5.7682      2.00000
      6      -5.7398      2.00000
      7      -5.6791      2.00000
      8      -5.5813      2.00000
      9      -5.5022      2.00000
     10      -5.4404      2.00000
     11      -5.1608      2.00000
     12      -4.0383      2.00000
     13       0.5725      2.00000
     14       1.7744      2.00000
     15       3.6363      2.00000
     16       5.6115      2.00000
     17       5.8381      2.00000
     18       7.1475      2.00000
     19      14.4459      0.00000
     20      16.0501      0.00000
     21      16.4006      0.00000
     22      16.9115      0.00000
     23      18.2437      0.00000
     24      19.2099      0.00000
     25      20.7083      0.00000
     26      23.1253      0.00000
     27      23.5773      0.00000
     28      27.6444      0.00000
     29      28.4760      0.00000
     30      29.8470      0.00000
     31      30.6451      0.00000
     32      31.7519      0.00000

 k-point   383 :      -0.2500   -0.1250   -0.1667
  band No.  band energies     occupation 
      1      -8.5058      2.00000
      2      -7.7545      2.00000
      3      -5.8937      2.00000
      4      -5.8323      2.00000
      5      -5.7844      2.00000
      6      -5.6887      2.00000
      7      -5.6730      2.00000
      8      -5.6053      2.00000
      9      -5.5796      2.00000
     10      -5.5032      2.00000
     11      -5.4460      2.00000
     12      -3.9679      2.00000
     13       1.1467      2.00000
     14       3.1182      2.00000
     15       3.4106      2.00000
     16       5.2667      2.00000
     17       6.7944      2.00000
     18       7.1228      2.00000
     19      14.1472      0.00000
     20      15.5082      0.00000
     21      16.9847      0.00000
     22      17.6030      0.00000
     23      18.3525      0.00000
     24      19.2931      0.00000
     25      21.8544      0.00000
     26      23.6161      0.00000
     27      23.8759      0.00000
     28      26.5653      0.00000
     29      27.7417      0.00000
     30      29.0704      0.00000
     31      31.2301      0.00000
     32      31.9343      0.00000

 k-point   384 :      -0.1250   -0.1250   -0.1667
  band No.  band energies     occupation 
      1      -9.1240      2.00000
      2      -8.0117      2.00000
      3      -5.9492      2.00000
      4      -5.8536      2.00000
      5      -5.8527      2.00000
      6      -5.6743      2.00000
      7      -5.6410      2.00000
      8      -5.5888      2.00000
      9      -5.5600      2.00000
     10      -5.5010      2.00000
     11      -5.4579      2.00000
     12      -4.0926      2.00000
     13       1.0750      2.00000
     14       3.8474      2.00000
     15       4.8618      2.00000
     16       5.7545      2.00000
     17       7.4373      2.00000
     18       7.4848      2.00000
     19      13.1624      0.00000
     20      13.8991      0.00000
     21      17.7940      0.00000
     22      18.1141      0.00000
     23      18.9065      0.00000
     24      18.9515      0.00000
     25      22.4447      0.00000
     26      23.5240      0.00000
     27      25.2403      0.00000
     28      25.2689      0.00000
     29      27.9112      0.00000
     30      28.0578      0.00000
     31      29.3524      0.00000
     32      31.6697      0.00000


--------------------------------------------------------------------------------------------------------


 soft charge-density along one line, spin component           1
         0         1         2         3         4         5         6         7         8         9
 total charge-density along one line
 
 pseudopotential strength for first ion, spin component:           1
 -9.273   0.000   0.000  -0.030   0.000  -0.845  -0.000  -0.000
  0.000  -9.344  -0.017  -0.000   0.030  -0.000  -0.803   0.010
  0.000  -0.017  -9.303   0.000  -0.055  -0.000   0.010  -0.828
 -0.030  -0.000   0.000  -9.251   0.000   0.017   0.000  -0.000
  0.000   0.030  -0.055   0.000  -9.261  -0.000  -0.018   0.033
 -0.845  -0.000  -0.000   0.017  -0.000   5.610   0.000   0.000
 -0.000  -0.803   0.010   0.000  -0.018   0.000   5.585  -0.006
 -0.000   0.010  -0.828  -0.000   0.033   0.000  -0.006   5.602
  0.017   0.000  -0.000  -0.859  -0.000  -0.009  -0.000   0.000
 -0.000  -0.018   0.033  -0.000  -0.852   0.000   0.010  -0.020
  0.000   0.002   0.001   0.000  -0.004   0.000   0.002   0.000
  0.000   0.006   0.002  -0.000  -0.004  -0.000  -0.002   0.001
 -0.000  -0.008   0.005  -0.000   0.010   0.000   0.004  -0.002
 -0.000  -0.008  -0.012  -0.000   0.001   0.000   0.004   0.006
 -0.006  -0.000   0.000  -0.007  -0.000   0.002   0.000  -0.000
  0.000   0.012  -0.006   0.000  -0.012  -0.000  -0.002   0.001
  0.000   0.011   0.014   0.000  -0.001  -0.000  -0.003  -0.001
  0.009   0.000  -0.000   0.010   0.000  -0.001  -0.000   0.000
 total augmentation occupancy for first ion, spin component:           1
  2.017   0.000   0.000   0.001  -0.000   0.036   0.000   0.000   0.004  -0.000  -0.000  -0.000   0.000   0.000  -0.012   0.000
  0.000   2.015  -0.001  -0.000   0.002   0.000   0.032  -0.002  -0.000   0.009   0.001  -0.001  -0.005  -0.001   0.000  -0.000
  0.000  -0.001   2.024  -0.000  -0.004   0.000  -0.002   0.064   0.000  -0.013   0.003  -0.001  -0.006   0.034  -0.000  -0.001
  0.001  -0.000  -0.000   2.019   0.000   0.004  -0.000  -0.000   0.041   0.000  -0.000  -0.000   0.000  -0.000  -0.019   0.000
 -0.000   0.002  -0.004   0.000   2.024  -0.000   0.009  -0.013  -0.000   0.070   0.003   0.004  -0.023  -0.007  -0.000  -0.003
  0.036   0.000   0.000   0.004  -0.000   0.075   0.000   0.000   0.010  -0.000  -0.000  -0.000   0.000   0.000  -0.088  -0.000
  0.000   0.032  -0.002  -0.000   0.009   0.000   0.063  -0.010  -0.000   0.036  -0.030  -0.001  -0.066  -0.010   0.000  -0.002
  0.000  -0.002   0.064  -0.000  -0.013   0.000  -0.010   0.170  -0.000  -0.038  -0.016  -0.001  -0.043   0.301  -0.000  -0.001
  0.004  -0.000   0.000   0.041  -0.000   0.010  -0.000  -0.000   0.087   0.000   0.000   0.000  -0.000  -0.000  -0.143  -0.000
 -0.000   0.009  -0.013   0.000   0.070  -0.000   0.036  -0.038   0.000   0.215   0.100   0.003  -0.224  -0.077   0.000  -0.005
 -0.000   0.001   0.003  -0.000   0.003  -0.000  -0.030  -0.016   0.000   0.100   1.329   0.046   0.054   0.077   0.000   0.003
 -0.000  -0.001  -0.001  -0.000   0.004  -0.000  -0.001  -0.001   0.000   0.003   0.046   0.003   0.003   0.003  -0.000   0.000
  0.000  -0.005  -0.006   0.000  -0.023   0.000  -0.066  -0.043  -0.000  -0.224   0.054   0.003   0.981  -0.094  -0.000   0.023
  0.000  -0.001   0.034  -0.000  -0.007   0.000  -0.010   0.301  -0.000  -0.077   0.077   0.003  -0.094   1.150  -0.000  -0.002
 -0.012   0.000  -0.000  -0.019  -0.000  -0.088   0.000  -0.000  -0.143   0.000   0.000  -0.000  -0.000  -0.000   1.332  -0.000
  0.000  -0.000  -0.001   0.000  -0.003  -0.000  -0.002  -0.001  -0.000  -0.005   0.003   0.000   0.023  -0.002  -0.000   0.001
  0.000   0.000   0.005   0.000  -0.001  -0.000  -0.000   0.007  -0.000  -0.001   0.003   0.000  -0.002   0.027  -0.000  -0.000
 -0.001   0.000   0.000  -0.002  -0.000  -0.002   0.000   0.000  -0.004  -0.000   0.000   0.000   0.000   0.000   0.035   0.000


------------------------ aborting loop because EDIFF is reached ----------------------------------------


    CHARGE:  cpu time      0.1282: real time      0.1283
    FORLOC:  cpu time      0.0003: real time      0.0010
    FORNL :  cpu time      0.1461: real time      0.1514
    STRESS:  cpu time      3.5709: real time      3.5785
    FORCOR:  cpu time      0.0051: real time      0.0089
    FORHAR:  cpu time      0.0011: real time      0.0025
    MIXING:  cpu time      0.0003: real time      0.0003
    OFIELD:  cpu time      0.0001: real time      0.0009

  FORCE on cell =-STRESS in cart. coord.  units (eV):
  Direction    XX          YY          ZZ          XY          YZ          ZX
  --------------------------------------------------------------------------------------
  Alpha Z   245.59616   245.59616   245.59616
  Ewald   -1000.22355 -1245.25307 -1228.70171     0.00000     0.00882    -0.00000
  Hartree   400.90074   293.23858   289.95116     0.00000     0.00438    -0.00000
  E(xc)    -202.35942  -203.04158  -202.92691     0.00000     0.00003    -0.00000
  Local      -8.71220   337.03629   326.54891    -0.00000    -0.01313     0.00000
  n-local     3.46092    -7.89122    -3.65600     0.00000     0.00042    -0.00000
  augment   246.53749   247.77707   246.83010    -0.00000     0.00018     0.00000
  Kinetic   325.06835   342.69104   336.76880    -0.00000    -0.00071    -0.00000
  Fock        0.00000     0.00000     0.00000     0.00000     0.00000     0.00000
  -------------------------------------------------------------------------------------
  Total      10.26847    10.15327    10.41051     0.00000    -0.00003    -0.00000
  in kB     447.42904   442.40943   453.61814     0.00000    -0.00112    -0.00001
  external pressure =      447.82 kB  Pullay stress =        0.00 kB


 VOLUME and BASIS-vectors are now :
 -----------------------------------------------------------------------------
  energy-cutoff  :      600.00
  volume of cell :       36.77
      direct lattice vectors                 reciprocal lattice vectors
     1.797939366 -2.180868281 -0.000011675     0.278096141 -0.229266483  0.000001078
     1.797939367  2.180868282  0.000011686     0.278096141  0.229266483 -0.000001079
     0.000000012  0.000022053  4.688757833    -0.000000001 -0.000001142  0.213276103

  length of vectors
     2.826441654  2.826441655  4.688757833     0.360417236  0.360417236  0.213276103


 FORCES acting on ions
    electron-ion (+dipol)            ewald-force                    non-local-force                 convergence-correction
 -----------------------------------------------------------------------------------------------
   0.707E-06 0.573E+02 0.288E+02   -.675E-06 -.522E+02 -.232E+02   -.136E-06 -.503E+01 -.558E+01   -.612E-07 0.350E-03 0.123E-03
   0.635E-05 -.573E+02 0.288E+02   -.594E-05 0.522E+02 -.232E+02   -.639E-06 0.503E+01 -.558E+01   0.716E-08 -.351E-03 0.117E-03
   -.523E-05 0.478E+02 -.208E+02   0.562E-05 -.519E+02 0.232E+02   -.226E-06 0.415E+01 -.235E+01   -.665E-08 0.150E-03 -.518E-04
   -.825E-06 -.478E+02 -.208E+02   0.994E-06 0.519E+02 0.232E+02   -.708E-07 -.415E+01 -.235E+01   0.475E-07 -.150E-03 -.517E-04
 -----------------------------------------------------------------------------------------------
   0.999E-06 -.139E-03 0.159E+02   -.584E-14 -.711E-14 0.000E+00   -.107E-05 -.625E-03 -.159E+02   -.132E-07 -.150E-05 0.136E-03
 
 
 POSITION                                       TOTAL-FORCE (eV/Angst)
 -----------------------------------------------------------------------------------
      1.79794     -0.67393      2.44702        -0.000000      0.055799     -0.010723
      1.79794      1.07527      0.10266        -0.000000     -0.055850     -0.010822
      1.79794     -0.81236      4.32024         0.000000      0.054337      0.010789
      1.79794      1.21377      1.97587         0.000000     -0.054286      0.010757
 -----------------------------------------------------------------------------------
    total drift:                               -0.000000     -0.000766     -0.000613


--------------------------------------------------------------------------------------------------------



  FREE ENERGIE OF THE ION-ELECTRON SYSTEM (eV)
  ---------------------------------------------------
  free  energy   TOTEN  =       -21.98405630 eV

  energy  without entropy=      -21.98405630  energy(sigma->0) =      -21.98405630
 


--------------------------------------------------------------------------------------------------------


    POTLOK:  cpu time      0.0073: real time      0.0086


--------------------------------------------------------------------------------------------------------


     LOOP+:  cpu time    104.7710: real time    105.0826
    4ORBIT:  cpu time      0.0000: real time      0.0000

 total amount of memory used by VASP MPI-rank0   177935. kBytes
=======================================================================

   base      :      30000. kBytes
   nonl-proj :     138098. kBytes
   fftplans  :        347. kBytes
   grid      :       1368. kBytes
   one-center:         62. kBytes
   wavefun   :       8060. kBytes
 
  
  
 General timing and accounting informations for this job:
 ========================================================
  
                  Total CPU time used (sec):      107.574
                            User time (sec):      105.774
                          System time (sec):        1.800
                         Elapsed time (sec):      111.663
  
                   Maximum memory used (kb):      272392.
                   Average memory used (kb):          N/A
  
                          Minor page faults:        41516
                          Major page faults:            4
                 Voluntary context switches:         4366
