Hf O 
 1.0000000000000000
     5.2390601337432896    0.0000000000000000   -0.0000000000000050
     0.0000000000000000    5.0758502946391850    0.0000000000000000
    -0.0000091684024274    0.0000019036735831    5.0750135528863991
 Hf  O  
   4   8
Direct
 -0.0159862817837555  0.0144842768035882  0.0071755623957185
  0.4840142560090764 -0.0460116957023571  0.4774107871071787
  0.4840137234498372  0.4539880964088230  0.0071757301680898
 -0.0159857508587901  0.5144840849464837  0.4774106328618848
  0.2352018264675542  0.2536444586863729  0.2775942429634548
  0.7352018968896907  0.2148260862266163  0.2775905745151756
  0.3317723566518395  0.1235378148605700  0.8068573553091274
  0.8317701415136662  0.3449320664260289  0.8068535228239216
  0.2352035607928809  0.7536446698193415  0.2069906281525269
  0.7352035930755976  0.7148259159734220  0.2069939769949175
  0.3317733059154299  0.6235374488597031  0.6777275661741649
  0.8317714179702017  0.8449325077186833  0.6777309145047907
