Hf O 
 1.0000000000000000
     5.2390601337432896   -0.0000000000000000   -0.0000000000000050
     0.0000000000000000    5.0758502946391850    0.0000000000000000
    -0.0000086535073084    0.0000018954686965    5.0746491270487706
 Hf  O  
   4   8
Direct
  0.0159827909000840  0.0461008976619743 -0.0071852404007405
  0.5159822968432498 -0.0144463881935311  0.5226609892917826
  0.5159828339858032  0.4855534452082020 -0.0071851424870231
  0.0159822423049423  0.5461006813302524  0.5226607418869322
  0.1681011954181676  0.3765767032020680  0.1930496554330768
  0.6681034831205124  0.1550805678097733  0.1930535974968476
  0.2647227228796536  0.2467175752367094  0.7222452799319005
  0.7647225993160811  0.2849387245041436  0.7222487759860863
  0.1681004005079909  0.8765769899250293  0.3224274120920118
  0.6681023199858905  0.6550801326309263  0.3224241160870190
  0.2647211897069494  0.7467173532393178  0.7932317894287022
  0.7647210988026567  0.7849388812250038  0.7932288967520419
