Hf O 
 1.0000000000000000
     5.2390601337432896    0.0000000000000000   -0.0000000000000050
     0.0000000000000000    5.0758502946391850    0.0000000000000000
    -0.0000405969053208    0.0000028723904816    5.1643039345407287
 Hf  O  
   4   8
Direct
  0.0075123536902603  0.0432447032022534 -0.0033639999723066
  0.5075124784768108 -0.0342070779320184  0.5077798030765005
  0.5075101919361099  0.4657912669574359 -0.0033605825941295
  0.0075149201758752  0.5432427421926722  0.5077836067930035
  0.1855207593916723  0.3544968139164434  0.2114735648650211
  0.6855208117492765  0.1545358527745390  0.2114723686484303
  0.2923410382607404  0.1885168697407603  0.7566912219245815
  0.7923433633033375  0.3205274612004823  0.7566987792117584
  0.1855232930469840  0.8544958890436303  0.2929445349716148
  0.6855232333031394  0.6545368490756296  0.2929458373575247
  0.2923569347211691  0.6885146355561033  0.7477207827428612
  0.7923591908104530  0.8205295019992590  0.7477134739141033
