Hf O 
 1.0000000000000000
     5.2390601337432896    0.0000000000000000   -0.0000000000000050
     0.0000000000000000    5.0758502946391850    0.0000000000000000
    -0.0000153054943237    0.0000012742107094    5.1117948279924450
 Hf  O  
   4   8
Direct
  0.0164325819222631  0.0391699940175280 -0.0074360848951760
  0.5164294858140867 -0.0250280102219642  0.5143488536584945
  0.5164312130556680  0.4749707446121726 -0.0074335727508572
  0.0164310264926339  0.5391685949059094  0.5143513570167043
  0.1829043679004197  0.3613141246032231  0.2015382026229041
  0.6829047027698943  0.1528238329239252  0.2015385760768472
  0.2777915531298221  0.2160509357902879  0.7357456981683044
  0.7777928934167484  0.2980943557771204  0.7357516911105085
  0.1829032361926473  0.8613128489990394  0.3053761503655415
  0.6829034929943798  0.6528250783001299  0.3053759986141344
  0.2777987674893841  0.7160501223095200  0.7711654536784780
  0.7778000982470363  0.7980950261862066  0.7711596269117746
