Hf O 
 1.0000000000000000
     5.2390601337432896   -0.0000000000000000   -0.0000000000000050
     0.0000000000000000    5.0758502946391850    0.0000000000000000
     0.0112067437632883   -0.5183045066777677    5.1283014388147148
 Hf  O  
   4   8
Direct
  0.0200569510768549 -0.0211829228701580  0.0017882538366538
  0.5203169028454413  0.0497194807741262  0.4597196477163383
  0.4511933713561783  0.4787970036711298  0.0023982509297311
 -0.0485285339781869  0.5504135795624779  0.4594733120918655
  0.2295561017749081  0.2882395575353736  0.2749831733564614
  0.7426901179864314  0.2408837811128685  0.1893565915304576
  0.3074966273546865  0.1224059191236394  0.7951544526246686
  0.6686741773771756  0.4056260046835996  0.6703479762314272
  0.2427167670718545  0.7882742507004379  0.2719516629785089
  0.7295772055869362  0.7403145162165989  0.1870511798281752
  0.1686958173884590  0.6230370211326964  0.7912140337521182
  0.8075199898185224  0.9067628936324285  0.6666140858921176
