Hf O 
 1.0000000000000000
     5.2390601337432896   -0.0000000000000000   -0.0000000000000050
     0.0000000000000000    5.0758502946391850    0.0000000000000000
     0.0189881023351937   -0.3651418677251776    5.1216018738832387
 Hf  O  
   4   8
Direct
  0.0169059102747489 -0.0164737709599480 -0.0048337230469523
  0.5171615159332621  0.0243896523073807  0.4642492622697716
  0.4666077034743956  0.4754860667660023 -0.0041257402594478
 -0.0329804665359770  0.5339888638935559  0.4637853600109276
  0.2403253023485615  0.2858463392950855  0.2674543822893130
  0.7452335563626101  0.2224479458488860  0.2096033674202464
  0.3006773415106431  0.1392962324483725  0.7864581572651597
  0.7239810068899979  0.3634371266608468  0.7042163382135296
  0.2454657467253394  0.7867483230933880  0.2494895421055403
  0.7404501936453911  0.7223543183391763  0.1925048250209228
  0.2240335805512089  0.6451272620046328  0.7550018482537681
  0.8008139585837779  0.8702305306778246  0.6733248048763935
