Hf O 
 1.0000000000000000
     5.2390601337432896   -0.0000000000000000   -0.0000000000000050
     0.0000000000000000    5.0758502946391850    0.0000000000000000
     0.0173927494803045   -0.2377155211009670    5.1056470612928342
 Hf  O  
   4   8
Direct
 -0.0023792226463846  0.0026078364809805 -0.0087598579799845
  0.4976957902523269  0.0072021242178359  0.4674768219123652
  0.4681950302488028  0.4789217717855629 -0.0081376588873301
 -0.0315439652013613  0.5323845472587264  0.4669758635022824
  0.2359188797035480  0.2885600198102972  0.2642677707278937
  0.7357389401289454  0.2209075963676746  0.2271828356824418
  0.2954525449610335  0.1510147247292721  0.7847235336093422
  0.7543003765561974  0.3521049561787023  0.7342215506180569
  0.2359917987793397  0.7901124388591910  0.2314859082929851
  0.7360540463951345  0.7216306168933838  0.1948763622987535
  0.2542460499392173  0.6585554019900228  0.7244791431726062
  0.7954675799907798  0.8603982065458217  0.6743240106332645
