Hf O 
 1.0000000000000000
     5.2390601337432896    0.0000000000000000   -0.0000000000000050
     0.0000000000000000    5.0758502946391850    0.0000000000000000
     0.0321553919094291   -0.1061019510028096    5.0781634537947093
 Hf  O  
   4   8
Direct
 -0.0118322701116757  0.0147183475428602 -0.0018713245038002
  0.4879099023326193 -0.0436452966082617  0.4664208273423140
  0.4851706542838031  0.4565147869520640 -0.0041024671971138
 -0.0149330044557049  0.5161033765956223  0.4688580443501311
  0.2391608144447457  0.2556389007305956  0.2684462303489762
  0.7372690877185962  0.2163364511628690  0.2656966621464705
  0.3320144376116499  0.1244575531591418  0.7982004658530206
  0.8296294390405509  0.3455143684044374  0.7934354407988607
  0.2373778959233480  0.7561773132251738  0.1999529167595501
  0.7392278470356719  0.7156831829066120  0.1971310797930301
  0.3291971486631393  0.6259324277046007  0.6720809752745071
  0.8317034579842039  0.8483531502795953  0.6674663943742417
