Hf O 
 1.0000000000000000
     5.2390601337432896    0.0000000000000000   -0.0000000000000050
     0.0000000000000000    5.0758502946391850    0.0000000000000000
    -0.0022715173747796   -0.5753109359535985    5.1152005318499238
 Hf  O  
   4   8
Direct
  0.0032690592513193 -0.0050853399688609  0.0000128491644986
  0.5032144647987176  0.0720193324230120  0.4543422410632930
  0.4296605756339659  0.4949055082651699  0.0000029970267160
 -0.0703944865139660  0.5718964812200862  0.4541928090137960
  0.2077897222468366  0.3019063499349281  0.2745633543884912
  0.7254751118281776  0.2651057948426478  0.1800498772621527
  0.3071784199005447  0.1209096869600070  0.8014347174082386
  0.6257143574393852  0.4460621095299475  0.6529024669699953
  0.2254620597558944  0.8017064044113724  0.2743250662451727
  0.7077663603963725  0.7650317485822139  0.1796269798131904
  0.1256868397485941  0.6208379517960126  0.8013976777501047
  0.8071966407263748  0.9459136612488359  0.6528271114738827
