Hf O 
 1.0000000000000000
     5.2390601337432896    0.0000000000000000   -0.0000000000000050
     0.0000000000000000    5.0758502946391850    0.0000000000000000
    -0.0000199934441268    0.0000013955953116    5.1104231057109448
 Hf  O  
   4   8
Direct
  0.0163498732975616  0.0395068470780437 -0.0074229318774073
  0.5163469049877840 -0.0251848712363180  0.5144233783144775
  0.5163484811652014  0.4748136470365584 -0.0074202090935110
  0.0163484958430409  0.5395052139396403  0.5144260589359022
  0.1826425376460435  0.3614982424751180  0.2015653983909719
  0.6826430117477731  0.1528198552490277  0.2015658607183654
  0.2778451139711518  0.2161159315374190  0.7356997401265621
  0.7778464211436548  0.2982095897863152  0.7357059035286754
  0.1826411764846966  0.8614968999481541  0.3054370572380392
  0.6826415784568362  0.6528211977141246  0.3054368415232628
  0.2778519302541094  0.7161152958591146  0.7712996215594811
  0.7778532339480834  0.7982100468559453  0.7712936690533869
