Hf O 
 1.0000000000000000
     5.2390601337432896    0.0000000000000000   -0.0000000000000050
     0.0000000000000000    5.0758502946391850    0.0000000000000000
    -0.0000391984219619    0.0000025972841417    5.1623319822982205
 Hf  O  
   4   8
Direct
  0.0074208617615526  0.0439385481417942 -0.0033379408418098
  0.5074209386151767 -0.0346209594099781  0.5078910042464686
  0.5074186402214386  0.4653771410542951 -0.0033343449721494
  0.0074233415653319  0.5439364230174694  0.5078948791118526
  0.1850278333481267  0.3549626280513127  0.2114834405739002
  0.6850279869901044  0.1543512461797350  0.2114822383919000
  0.2924709761822749  0.1885380583085215  0.7565913219992441
  0.7924732385352296  0.3207874771865284  0.7565990243054984
  0.1850305687670673  0.8549613229539681  0.2930722952193319
  0.6850306365651130  0.6543526297815399  0.2930735940689882
  0.2924876781603739  0.6885357678780878  0.7479579677308781
  0.7924898568991146  0.8207895844163750  0.7479505032394883
