Hf O 
 1.0000000000000000
     5.2390601337432896   -0.0000000000000000   -0.0000000000000050
     0.0000000000000000    5.0758502946391850    0.0000000000000000
    -0.0000091738825967    0.0000020709019129    5.0749109841669178
 Hf  O  
   4   8
Direct
 -0.0158972614314558  0.0144458432255229  0.0071395022322670
  0.4841032247210027 -0.0460874030859595  0.4773907733347766
  0.4841026805541182  0.4539123909502131  0.0071398410954000
 -0.0158967121818086  0.5144456487944100  0.4773907750300348
  0.2352451724482681  0.2536870077017357  0.2775113532789717
  0.7352453063649576  0.2146684288773923  0.2775074742774042
  0.3318255171732227  0.1235050424957629  0.8067772785482925
  0.8318231238850617  0.3448499887839751  0.8067730897456106
  0.2352470173825793  0.7536872098948638  0.2070173380686800
  0.7352471203063030  0.7146682694200807  0.2070208852602203
  0.3318264455451712  0.6235046394308518  0.6777515228287054
  0.8318243962433057  0.8448504485401180  0.6777551852649635
