Hf O 
 1.0000000000000000
     5.2390601337432896   -0.0000000000000000   -0.0000000000000050
     0.0000000000000000    5.0758502946391850    0.0000000000000000
    -0.0000394881283072    0.0000025834320645    5.1627025095100052
 Hf  O  
   4   8
Direct
 -0.0072760416290751  0.0346511596145051  0.0032647400355863
  0.4927194507905998 -0.0439835315219657  0.4921621437655152
  0.4927217651351052  0.4560144308469503  0.0032683017575201
 -0.0072781378513478  0.5346493644689819  0.4921660458306104
  0.2074505544102045  0.3116873195913652  0.2431843668620230
  0.7074484364354408  0.1789686068132135  0.2431768931355495
  0.3149375498162545  0.1451571167557829  0.7883509798217790
  0.8149375488401154  0.3455104260741181  0.7883524513216844
  0.2074346522786816  0.8116895401603115  0.2522535603142323
  0.7074325659967637  0.6789665346114755  0.2522607837743113
  0.3149353332793520  0.6451583084560653  0.7070806082526413
  0.8149352747771866  0.8455091580424126  0.7070791124791158
