Hf O 
 1.0000000000000000
     5.2390601337432896    0.0000000000000000   -0.0000000000000050
     0.0000000000000000    5.0758502946391850    0.0000000000000000
    -0.0000181520143556    0.0000014033824971    5.1110057724348934
 Hf  O  
   4   8
Direct
 -0.0162178413232585  0.0252372530101002  0.0073561826325768
  0.4837823639966809 -0.0395488241637238  0.4856415590194730
  0.4837807695179405  0.4604496167084366  0.0073589119164429
 -0.0162160133972685  0.5252358624790645  0.4856442525397819
  0.2220529728019038  0.2841910625607671  0.2640518376085647
  0.7220516260036234  0.2014907011098913  0.2640456782168512
  0.3173162097866641  0.1385942310486230  0.7982829106473963
  0.8173158132545091  0.3470951244096002  0.7982826285263934
  0.2220467637261336  0.7841917153684408  0.2289521945792001
  0.7220454477566082  0.7014901504236490  0.2289580994752412
  0.3173179257741831  0.6385954482029601  0.6947181404843531
  0.8173175974663442  0.8470939514383848  0.6947181295000474
