Hf O 
 1.0000000000000000
     5.2390601337432896   -0.0000000000000000   -0.0000000000000050
     0.0000000000000000    5.0758502946391850    0.0000000000000000
    -0.0000086791553205    0.0000020575238903    5.0745544546001993
 Hf  O  
   4   8
Direct
  0.0158961663081955  0.0461703970286832 -0.0071509031943675
  0.5158956032593891 -0.0144095075399452  0.5226786420998397
  0.5158961546811855  0.4855903174609219 -0.0071506412072736
  0.0158956148569340  0.5461701788314184  0.5226785364707375
  0.1680624064139578  0.3766016815173407  0.1931304680520635
  0.6680648891238852  0.1551626870407062  0.1931348009391929
  0.2646752015044273  0.2466835522180929  0.7223227340747187
  0.7646749940590346  0.2850800867533663  0.7223264848531860
  0.1680616436958564  0.8766019987440618  0.3223989199668797
  0.6680637448611479  0.6551622456680712  0.3223952665904845
  0.2646735717200127  0.7466833253834881  0.7932066997878015
  0.7646733958232347  0.7850802569751252  0.7932035718064722
