Hf O 
 1.0000000000000000
     5.2390601337432896   -0.0000000000000000   -0.0000000000000050
     0.0000000000000000    5.0758502946391850    0.0000000000000000
    -0.0000018838081464    0.0000042673266625    5.2101670623391483
 Hf  O  
   4   8
Direct
  0.0000564234112827  0.0462306627127864 -0.0000303558051977
  0.5000558022637625 -0.0462545100108108  0.5000089868587895
  0.5000552736643452  0.4537454226123107 -0.0000282223029024
  0.0000567646571730  0.5462306730611507  0.5000106030729985
  0.1890488420484843  0.3434528192583391  0.2217245250708399
  0.6890483937641189  0.1565201043935123  0.2217218061963961
  0.3109338767272273  0.1566516071003550  0.7781270930890767
  0.8109347303399577  0.3433282132314085  0.7781302540778086
  0.1890488770063768  0.8434528581219815  0.2782558948787287
  0.6890483735505414  0.6565202002278800  0.2782584935434007
  0.3109341714976620  0.6566518437059268  0.7218532824383928
  0.8109345410200487  0.8433275770029561  0.7218507309034148
