Hf O
 1.0000000000000000
     5.2914507350807227    0.0000000000000000   -0.0000000000000051
     0.0000000000000000    5.1266087975855772    0.0000000000000000
     0.0000000000000006   -0.0000000000000006    5.0758502946392925
 Hf  O
   4   8
Direct
  0.0000000000000000  0.0000000000000000  0.0000000000000000
  0.5000000000000014  0.0000000000000000  0.5000000000000012
  0.5000000000000039  0.5000000000000011  0.0000000000000000
  0.0000000000000000  0.5000000000000011  0.5000000000000012
  0.1938818629276992  0.2500000000000006  0.2500000000000006
  0.6938818629277042  0.2500000000000006  0.2500000000000007
  0.3061181370723030  0.2500000000000007  0.7500000000000012
  0.8061181370723056  0.2500000000000007  0.7500000000000012
  0.3061181370723008  0.7499999999999946  0.2500000000000000
  0.8061181370723124  0.7499999999999946  0.2500000000000000
  0.1938818629276993  0.7499999999999946  0.7500000000000012
  0.6938818629277024  0.7499999999999946  0.7500000000000012
