Hf O 
 1.0000000000000000
     5.3221042576881166   -0.0027427691439515   -0.0729097059093068
    -0.3119494372422298    5.0855510026693853    0.0239415961147125
     0.0691344447974989   -0.0196640660421624    5.0928756012575231
 Hf  O  
   4   8
Direct
 -0.0009584090494671 -0.0084662388428892  0.0021192426879813
  0.0109637401144455  0.4677821599345675  0.5021144331808509
  0.4761127476193612 -0.0095691585926168  0.4694508009721488
  0.5339231981549235  0.4687427341569085 -0.0304930861580553
  0.2957781943929824  0.2632935552426917  0.2364904786031445
  0.2131963211457216  0.2212482863766455  0.7356416190907759
  0.1570260651699725  0.7777620082606043  0.2887384986960972
  0.3472723283175930  0.7296329325159439  0.7571664220024006
  0.7967284958855267  0.2377160354525163  0.2358712992950131
  0.7141486483981621  0.1957892201893180  0.7366997321587914
  0.6628350884318337  0.7292918953749350  0.2574132036113880
  0.8531134622049167  0.6813182842028173  0.7889313144664943
