Hf O 
 1.0000000000000000
     5.2645177138580941    0.0000003688638451    0.0000107208998430
     0.0000003681245987    5.0509602093248445   -0.0000004811515934
     0.0000110835615578   -0.0000004965820815    5.0813694912260079
 Hf  O  
   4   8
Direct
  0.0002515426404194  0.0004208545793568 -0.0003337228673322
 -0.0487954924923335  0.4758490143944513  0.4996665564052087
  0.4512044303928537  0.0004208409931093  0.4996662018243187
  0.5002515904167535  0.4758493790538298 -0.0003330709694815
  0.2291725713726502  0.2786056925697311  0.2352974104380968
  0.2222858304941963  0.2786045784908015  0.7352973889108521
  0.1275130601997631  0.8022825005488157  0.3435322386287604
  0.3239514290022795  0.8022844810448539  0.8435330894057381
  0.7291733296069931  0.1976619151087007  0.2352999011862386
  0.7222853636808652  0.1976629909344758  0.7352996851791833
  0.6275128883559413  0.6739850208125285  0.3435344785371516
  0.8239519490469736  0.6739827719462455  0.8435354262428441
