Hf O 
 1.0000000000000000
     5.2629725542827366    0.0000003453175829    0.0000108775753722
     0.0000003452256326    5.0541308222961439   -0.0000005289765173
     0.0000112256575587   -0.0000005447464398    5.0840899862465969
 Hf  O  
   4   8
Direct
  0.0002282063430301  0.0003267423423057 -0.0002854133535745
 -0.0162899719728117  0.4918216498449131  0.4997146515357543
  0.4837099869058068  0.0003267489730328  0.4997145359447743
  0.5002282085681622  0.4918217900243443 -0.0002852014562924
  0.2114653341124746  0.2944725516597437  0.2089658796374639
  0.2724714989178660  0.2944711041492978  0.7089662163238596
  0.1775212189703928  0.8022902638298153  0.3172897694222849
  0.3064216692464094  0.8022918898239713  0.8172903039973708
  0.7114660061821365  0.1976752369532404  0.2089683098581566
  0.7724711159907003  0.1976765698193632  0.7089684719287622
  0.6775209511370394  0.6898572535294836  0.3172920007492242
  0.8064222659935039  0.6898554218910108  0.8172926597823598
