Hf O 
 1.0000000000000000
     5.2635753580267375    0.0000003333596479    0.0000108149969442
     0.0000003339022461    5.0525833470283175   -0.0000005299891606
     0.0000111692315909   -0.0000005457329579    5.0828318223101361
 Hf  O  
   4   8
Direct
 -0.0003274496238532 -0.0005008964892791  0.0004187297420314
  0.0325569168530033  0.5162559184709297  0.5004185699796667
  0.5325569330567375 -0.0005009014578816  0.5004188084979542
  0.4996724997673840  0.5162556537640107  0.0004182907060795
  0.1847599562962250  0.3180376189708897  0.1696127070162031
  0.3474625896082959  0.3180355801666811  0.6696135158926585
  0.2525992773943481  0.8023197063666471  0.2778487904225054
  0.2796293152458876  0.8023208995941304  0.7778487663370457
  0.6847605140352833  0.1977190671217331  0.1696150494013326
  0.8474623631813795  0.1977208609080754  0.6696157417697407
  0.7525988467516163  0.7134368377239010  0.2778510621789086
  0.7796300464283928  0.7134355622346684  0.7778512147640112
