Hf O 
 1.0000000000000000
     5.2629725542827366    0.0000003453175829    0.0000108775753722
     0.0000003452256326    5.0541308222961439   -0.0000005289765173
     0.0000112256575587   -0.0000005447464398    5.0840899862465969
 Hf  O  
   4   8
Direct
 -0.0002282063430301 -0.0003267423423056  0.0002854133535745
  0.0162899719728117  0.5081783501550875  0.5002853484642455
  0.5162900130941931 -0.0003267489730328  0.5002854640552253
  0.4997717914318380  0.5081782099756562  0.0002852014562925
  0.1935777340064962  0.3101445781089898  0.1827073402176399
  0.3224790488629609  0.3101427464705171  0.6827079992507754
  0.2275288840092997  0.8023234301806372  0.2910315280712376
  0.2885339938178636  0.8023247630467601  0.7910316901418429
  0.6935783307535905  0.1977081101760290  0.1827096960026290
  0.8224787810296071  0.1977097361701855  0.6827102305777147
  0.7275285010821340  0.7055288958507029  0.2910337836761401
  0.7885346658875254  0.7055274483402566  0.7910341203625360
