Hf O 
 1.0000000000000000
     5.2635753580267322    0.0000003333596479    0.0000108149969442
     0.0000003339022461    5.0525833470283121   -0.0000005299891606
     0.0000111692315909   -0.0000005457329579    5.0828318223101290
 Hf  O  
   4   8
Direct
  0.0003274496238532  0.0005008964892792 -0.0004187297420314
 -0.0325569168530034  0.4837440815290708  0.4995814300203328
  0.4674430669432625  0.0005009014578816  0.4995811915020454
  0.5003275002326164  0.4837443462359899 -0.0004182907060795
  0.2203699535716072  0.2865644377653321  0.2221487852359882
  0.2474011532483837  0.2865631622760996  0.7221489378210910
  0.1525376368186208  0.8022791390919251  0.3303842582302589
  0.3152394859647166  0.8022809328782669  0.8303849505986668
  0.7203706847541126  0.1976791004058700  0.2221512336629539
  0.7474007226056520  0.1976802936333537  0.7221512095774942
  0.6525374103917041  0.6819644198333192  0.3303864841073411
  0.8152400437037751  0.6819623810291108  0.8303872929837965
