Hf O 
 1.0000000000000000
     5.2627468743330033    0.0000003427628453    0.0000108810957993
     0.0000003427175305    5.0547681721328184   -0.0000005571850845
     0.0000112275208525   -0.0000005731395168    5.0845870781400437
 Hf  O  
   4   8
Direct
 -0.0000000000000000  0.0000000000000000  0.0000000000000000
  0.0000000000000000  0.5000000000000002  0.4999999999999998
  0.4999999999999999 -0.0000000000000000  0.4999999999999998
  0.5000000000000001  0.5000000000000001  0.0000000000000000
  0.2025044691136654  0.3023136501783267  0.1958112078222065
  0.2974923423907711  0.3023120177243900  0.6958117127513879
  0.2025079900430327  0.8023120519306118  0.3041860431040981
  0.2974948886511574  0.8023135233700603  0.8041864032826515
  0.7025051113488427  0.1976864766299399  0.1958135967173484
  0.7974920099569675  0.1976879480693884  0.6958139568959016
  0.7025076576092292  0.6976879822756104  0.3041882872486117
  0.7974955308863348  0.6976863498216738  0.8041887921777930
