Hf O 
 1.0000000000000000
     5.2645177138581003    0.0000003688638451    0.0000107208998430
     0.0000003681245987    5.0509602093248507   -0.0000004811515934
     0.0000110835615578   -0.0000004965820815    5.0813694912260079
 Hf  O  
   4   8
Direct
 -0.0002515426404194 -0.0004208545793567  0.0003337228673322
  0.0487954924923335  0.5241509856055491  0.5003334435947911
  0.5487955696071464 -0.0004208409931093  0.5003337981756809
  0.4997484095832467  0.5241506209461706  0.0003330709694816
  0.1760480509530265  0.3260172280537550  0.1564645737571552
  0.3724871116440588  0.3260149791874721  0.6564655214628478
  0.2777146363191349  0.8023370090655249  0.2647003148208162
  0.2708266703930070  0.8023380848912997  0.7647000988137610
  0.6760485709977209  0.1977155189551462  0.1564669105942615
  0.8724869398002372  0.1977174994511850  0.6564677613712393
  0.7777141695058037  0.7213954215091990  0.2647026110891476
  0.7708274286273498  0.7213943074302691  0.7647025895619028
