Hf O 
 1.0000000000000000
     5.1746192954716763    0.0000306461140866    0.0000272358971543
     0.0000304457376875    5.0770840975607809    0.0093670699007046
     0.0000273918853037    0.0089254593952272    5.0815082611857108
 Hf  O  
   4   8
Direct
 -0.0131032213214982 -0.0089510360178707  0.0129673638761217
 -0.0147244634881549  0.4896091383590259  0.5126003443384258
  0.4859165951262738 -0.0089454472376519  0.5129724842879363
  0.4875484181727176  0.4896147346114733  0.0126071081311037
  0.2814921847885807  0.2420185693938211  0.2519455472774855
  0.1913374050848111  0.2420147241065868  0.7519427411158708
  0.1875355545003988  0.7519959809732641  0.2870398807239558
  0.2852954100143249  0.7519945241273299  0.7870395264768424
  0.7815366018637917  0.2382403535800500  0.2772760754672998
  0.6912922193076887  0.2382385560269797  0.7772778888786701
  0.6872366852620714  0.7472294758954413  0.2460550104999560
  0.7855951333707722  0.7472283357901481  0.7460555879263995
