Hf O 
 1.0000000000000000
     5.0786202938212099   -0.0012797707649895    0.0006597392897103
    -0.0012887948224245    5.0828063996992423    0.0700841340829470
     0.0006990198301578    0.0752085377465358    5.2517893664050588
 Hf  O  
   4   8
Direct
 -0.0097323899891273 -0.0131080424769756  0.0268581111163560
 -0.0256092311755740  0.4814459285611200  0.5079404180812199
  0.4779602275578785 -0.0135275492539776  0.5271290091492856
  0.4938129047310663  0.4813992470954264  0.0076720575092914
  0.2251981158836595  0.2585020563800333  0.2089374612043565
  0.2429450306308751  0.2563445591497366  0.7091774061491413
  0.2146180702763957  0.7621537495684783  0.3371350379282547
  0.2533968718551231  0.7601485687886290  0.8369219356239103
  0.7289220283988164  0.2352027643658134  0.3163796663212739
  0.7394259784101520  0.2333714195272265  0.8164025582675060
  0.7262614190278722  0.7363548861622926  0.2117387779463924
  0.7419839119252575  0.7342935122414755  0.7118212909193774
