Hf O 
 1.0000000000000000
     5.2641980223794684   -0.0000134920394130    0.0000801672697709
    -0.0000154705226485    5.0789467955694567    0.0240843807921606
     0.0000862841339426    0.0237707154349874    5.0875791056387989
 Hf  O  
   4   8
Direct
  0.0012753383721734 -0.0052026700786644 -0.0014292433971912
 -0.0275683605700471  0.4847763042927848  0.4968575279275385
  0.4749019741669149 -0.0051805308976611  0.4985596023227010
  0.5037178444142145  0.4848030122092327 -0.0031404668556152
  0.2867883050942416  0.2605947655959864  0.2561239381052971
  0.1893487439653241  0.2606066530311723  0.7561351415726112
  0.1627626832751659  0.7733401487262819  0.2967959105661914
  0.3134025814814971  0.7733345706519271  0.7967848267662119
  0.7860525841768721  0.2313353755283753  0.2466900621648547
  0.6900825148857181  0.2313445372875726  0.7466846704243738
  0.6648652605845127  0.7204701995072935  0.2827768001790943
  0.8113006501951212  0.7204765659708805  0.7827731899854362
