Hf O 
 1.0000000000000000
     5.0813766027780432   -0.0000089368834970    0.0000265407424354
    -0.0000093440370374    5.0793161700454910    0.0424099174725007
     0.0000283100611159    0.0451199858697072    5.1828998611916468
 Hf  O  
   4   8
Direct
 -0.0124897598673216 -0.0117103997407606  0.0197939820592997
 -0.0220275131857705  0.4851520509696950  0.5101776709965814
  0.4814039996561778 -0.0117192502370707  0.5197952514553110
  0.4909407012691558  0.4851570302128415  0.0101771968749425
  0.2423771129357899  0.2469037621049930  0.2191352824074627
  0.2265166927838233  0.2468854999024493  0.7191358306512546
  0.2086080073553894  0.7576103239973837  0.3239962263576200
  0.2602874985866598  0.7575934988476206  0.8239936811851295
  0.7443485343252475  0.2340748043993148  0.3078462204766841
  0.7245473564626452  0.2340620317434402  0.8078471314668760
  0.7134379033120027  0.7423890867905156  0.2196348490238098
  0.7554587759401786  0.7423760996956292  0.7196352987725594
