Hf O 
 1.0000000000000000
     5.1113199481458800    0.0000062720815956    0.0000197729637107
     0.0000060076263298    5.0802416016427605    0.0229570133076506
     0.0000203506162651    0.0237762631197953    5.1157449011849367
 Hf  O  
   4   8
Direct
 -0.0129401846036525 -0.0095348032831729  0.0147876070583591
 -0.0180994588185185  0.4879232308859571  0.5116271230995593
  0.4837917555482418 -0.0095370936675664  0.5147887350791494
  0.4889597388530999  0.4879269839625694  0.0116289947010743
  0.2639738482846150  0.2413897989124375  0.2342135947907943
  0.2068714112075717  0.2413811690236195  0.7342123094304859
  0.1980183554269427  0.7559185842748375  0.3075728816679674
  0.2728291758289582  0.7559093209872834  0.8075702501802743
  0.7644516760477361  0.2346013081302161  0.2942279630845047
  0.7063935283978837  0.2345937294999035  0.7942297998396095
  0.6988049886968921  0.7469616928906546  0.2318531523376788
  0.7720435717753877  0.7469554963599556  0.7318538692514104
