Hf O 
 1.0000000000000000
     5.2702375153860839    0.0000006954627746    0.0000049522200274
     0.0000005984147476    5.0538830824998797    0.0009837431111719
     0.0000042478198670    0.0000565889099316    5.0838205901018858
 Hf  O  
   4   8
Direct
  0.0155279344336352  0.0071001753818854 -0.0158504392193156
 -0.0480885439398724  0.4767695262519442  0.4840611170046857
  0.4519364554524332  0.0071025007743761  0.4841483977778466
  0.5155531175139133  0.4767715297525392 -0.0159380500012985
  0.2570656402505487  0.2766815637502718  0.2330050333939055
  0.2103830442664334  0.2766793600671178  0.7330052818631964
  0.1215138579239261  0.8069398448322893  0.3358659304729945
  0.3459357002122056  0.8069354749473906  0.8358634674116170
  0.7570396180797866  0.2074945923732382  0.2326627737801291
  0.7104090684259983  0.2074964615600826  0.7326629673677274
  0.6216074714413395  0.6772772570761090  0.3355232059588408
  0.8458424045056067  0.6772809587188825  0.8355212182077320
