Hf O 
 1.0000000000000000
     5.2392718830838181   -0.0002040243794542    0.0000347413116420
    -0.0002122940912193    5.0760736282001222   -0.0010822335305050
     0.0000346577470911   -0.0027774914951621    5.0760998822592267
 Hf  O  
   4   8
Direct
 -0.0129497009512880 -0.0072510111435033  0.0133198156844248
 -0.0101933374949949  0.4917353093005761  0.5134754354927725
  0.4889610666178656 -0.0072412384587956  0.5132654682791917
  0.4862665537245157  0.4917438146654518  0.0133656214703397
  0.2962024979971248  0.2460746104948406  0.2654257385767708
  0.1822496540353163  0.2460816086242920  0.7654358354959078
  0.1826965474242681  0.7463320342787773  0.2658081182538169
  0.2957645667606827  0.7462902754789651  0.7657206030709989
  0.7951648450533554  0.2455887667435337  0.2640607078138770
  0.6833176891884691  0.2455152689310799  0.7640679127964648
  0.6836843854273756  0.7479949417994842  0.2568333766345632
  0.7947978699147745  0.7478683243159012  0.7569454293029955
