Hf O 
 1.0000000000000000
     5.2812886798793786   -0.0000042428968595   -0.0000386523136573
    -0.0000048458006809    5.0705132253393375    0.0107820647636447
    -0.0000443043663611    0.0096643453279903    5.0929781809101193
 Hf  O  
   4   8
Direct
  0.0130900085893029  0.0028130661050355 -0.0112828351356867
 -0.0379420734671376  0.4817561231111353  0.4876994129014384
  0.4628200196464933  0.0028094125551673  0.4887226205775532
  0.5138542947783116  0.4817540013821015 -0.0123065014460351
  0.2755456174646077  0.2692645802252095  0.2415580763974777
  0.2003688923262271  0.2692721892218760  0.7415593737366276
  0.1429100399032139  0.7914159339143428  0.3144387130022158
  0.3329595235569903  0.7914093375323176  0.8144350373974582
  0.7752431237100617  0.2205311150219929  0.2367237083184848
  0.7006711211655801  0.2205243089072967  0.7367243525597420
  0.6440283844522496  0.6988869414442642  0.3088544406049037
  0.8318401407214937  0.6988938506479392  0.8088504024876332
