Hf O 
 1.0000000000000000
     5.1219213278831104    0.0000037386659916    0.0000156599879023
     0.0000034624346978    5.0812006621510388    0.0219795334346189
     0.0000159840415041    0.0227890924943281    5.1267491150890958
 Hf  O  
   4   8
Direct
 -0.0130811105988291 -0.0096866557411455  0.0151778680048478
 -0.0180555704206837  0.4880510704083521  0.5122503529371718
  0.4839269610206218 -0.0096877699757674  0.5151789361958710
  0.4889182001781543  0.4880540255114020  0.0122519318708062
  0.2644423114937201  0.2415164661882102  0.2334963634146408
  0.2064034349968177  0.2415075172936789  0.7334961110407257
  0.1977660576197323  0.7553218127209274  0.3071808723476182
  0.2730823224018844  0.7553126793360957  0.8071796435415105
  0.7650206926173052  0.2351934473655716  0.2946710130881591
  0.7058250382931435  0.2351859507074989  0.7946715061716406
  0.6992877601108302  0.7468635027022119  0.2315059501675151
  0.7715615896212167  0.7468570197839651  0.7315065072495861
