Hf O 
 1.0000000000000000
     5.2701988621742553    0.0000004950055435    0.0000043151329096
     0.0000003849310246    5.0538370878922008    0.0009735733109566
     0.0000035385546745    0.0000350006855874    5.0837841173699205
 Hf  O  
   4   8
Direct
  0.0155968154144105  0.0071422257713593 -0.0159346346997544
 -0.0480379104165669  0.4767938046319312  0.4839799336265213
  0.4519863972222524  0.0071443890189690  0.4840641685347128
  0.5156210672192085  0.4767955674736287 -0.0160193807522499
  0.2570908457507298  0.2767317737358151  0.2329103619600116
  0.2104776736736657  0.2767298827845388  0.7329106439482203
  0.1215399704270399  0.8070062951741984  0.3358382367789277
  0.3460294774314764  0.8070024339402598  0.8358359847689827
  0.7570657202992492  0.2074995751648636  0.2325810152148216
  0.7105028216830872  0.2075011473471375  0.7325812021548452
  0.6216302404867864  0.6772649497137918  0.3355067957624387
  0.8459395249470325  0.6772683083774359  0.8355050058872033
