Hf O 
 1.0000000000000000
     5.0791660614074647   -0.0013649206289368    0.0006182302296251
    -0.0013731142566546    5.0827354515840897    0.0700921437310617
     0.0006575568427341    0.0752255347582964    5.2529996789583482
 Hf  O  
   4   8
Direct
 -0.0097791681058567 -0.0132394781047961  0.0270423135231016
 -0.0258849603412299  0.4825747991924260  0.5078510689974564
  0.4790648136595124 -0.0136333989449214  0.5271735252054961
  0.4951904848731163  0.4825798278476963  0.0076822457787875
  0.2241695984088030  0.2581060918543431  0.2089140951166827
  0.2435029841602068  0.2566228262243887  0.7090736724935909
  0.2141799143069026  0.7617584437692656  0.3372689909574245
  0.2533841292498330  0.7603503564793550  0.8371107158632822
  0.7280855340466098  0.2345951197997124  0.3164712843705620
  0.7397103087111778  0.2333585956859492  0.8164307616653128
  0.7256479897780500  0.7353939105056265  0.2113864654441148
  0.7419721296970225  0.7340564160524092  0.7114588088906616
