Hf O 
 1.0000000000000000
     5.2813648500893864   -0.0000051838931632   -0.0000376949893344
    -0.0000058686208952    5.0705179263453468    0.0105145683347265
    -0.0000432875527908    0.0093826050559571    5.0929774975302697
 Hf  O  
   4   8
Direct
  0.0131047732086701  0.0028608652905034 -0.0112789216316094
 -0.0379203388877796  0.4818126263386104  0.4877294210412850
  0.4628197436215005  0.0028571190569994  0.4887265319554079
  0.5138470440974390  0.4818102673523542 -0.0122772467552958
  0.2755723477776095  0.2692311337300678  0.2415050052106231
  0.2003642237171185  0.2692386417897960  0.7415065899069126
  0.1429513511244974  0.7913669459529591  0.3143399175324777
  0.3329384731033123  0.7913597014886504  0.8143353001464233
  0.7752759007933046  0.2205484836251243  0.2367785672763725
  0.7006604087707121  0.2205421178423803  0.7367793538548127
  0.6440438824360152  0.6988990502754832  0.3089064030567208
  0.8318452444202181  0.6989065254757157  0.8089019518767362
