Hf O 
 1.0000000000000000
     5.2644804427668657   -0.0000174734978978    0.0000903136195032
    -0.0000196246597773    5.0788881061089066    0.0234058596802597
     0.0000973836391938    0.0230587113496567    5.0875271982223014
 Hf  O  
   4   8
Direct
  0.0013076302490733 -0.0050540488958288 -0.0013949283393593
 -0.0275088198290285  0.4849275123115517  0.4969506425683402
  0.4748827194510779 -0.0050377558048572  0.4985893624314762
  0.5036824230607998  0.4849435367641409 -0.0030519077390230
  0.2868656574717499  0.2605328342830304  0.2560677854774959
  0.1893478579583953  0.2605362923434602  0.7560720194032147
  0.1628521046503127  0.7731940497078920  0.2965115487151546
  0.3133884724051576  0.7732019628014093  0.7965062031248038
  0.7861370456072621  0.2314127594251447  0.2467556819061871
  0.6900737068775342  0.2314249430592853  0.7467545990923206
  0.6649109581005145  0.7204999002942407  0.2829628170618194
  0.8113353480070087  0.7204989365296942  0.7829662007016885
