Hf O 
 1.0000000000000000
     5.1821078846152782    0.0000272292622063    0.0000229971464228
     0.0000269284558410    5.0780542031576115    0.0091844112061536
     0.0000228205895854    0.0087655983355526    5.0873130562158480
 Hf  O  
   4   8
Direct
 -0.0131281224174258 -0.0091015487717039  0.0133576487129977
 -0.0149897335300207  0.4895645960014960  0.5127592138771382
  0.4857964701480970 -0.0090972190058427  0.5133623914742149
  0.4876650648890687  0.4895696952966138  0.0127656943420117
  0.2816279034381652  0.2423184045473880  0.2513359251527745
  0.1910502636976809  0.2423148508064346  0.7513339950873683
  0.1870340955802603  0.7519655450721324  0.2872257655107123
  0.2856466310261006  0.7519641226044718  0.7872256125406175
  0.7817850053316306  0.2382999238908716  0.2776084327733129
  0.6908926974882243  0.2382986175527808  0.7776095171629933
  0.6873553753037481  0.7468768525977704  0.2460810521744671
  0.7853261158019588  0.7468756389279992  0.7460811277364896
