Hf O 
 1.0000000000000000
     5.0867045777904512   -0.0000085002124129    0.0000235876607378
    -0.0000088766795058    5.0801294664555758    0.0403322929186128
     0.0000252136054107    0.0429727848099346    5.1902546473607165
 Hf  O  
   4   8
Direct
 -0.0125602811908806 -0.0116578842301010  0.0197002516778644
 -0.0216517487009971  0.4854422651855618  0.5107885391237358
  0.4816176431632312 -0.0116650552683784  0.5197014712236042
  0.4907101380766305  0.4854468806450553  0.0107880355022598
  0.2429788211138383  0.2465349063545974  0.2186778842322782
  0.2260613359703574  0.2465178540439549  0.7186785255194303
  0.2089481833212081  0.7568081103247500  0.3235017611162324
  0.2600926547626727  0.7567924050961097  0.8234998146731323
  0.7448492598051706  0.2348243782426890  0.3082397186060521
  0.7241927746671860  0.2348126364273606  0.8082400659896833
  0.7138033497371062  0.7426783062840822  0.2192061982879509
  0.7552389243247405  0.7426659378906769  0.7192065026904043
