Hf O 
 1.0000000000000000
     5.2399505937455775   -0.0001682755584683    0.0000337644512028
    -0.0001753987601226    5.0758467105319847   -0.0019267214110889
     0.0000336203421665   -0.0036828061562963    5.0761572382029589
 Hf  O  
   4   8
Direct
 -0.0126233743082307 -0.0072716972888573  0.0133449206974269
 -0.0099689242086540  0.4930421218422747  0.5134532535299053
  0.4900570255818150 -0.0072651264716779  0.5132517010698685
  0.4875020943865532  0.4930516880559756  0.0133638415361347
  0.2953082404206889  0.2458751319357980  0.2660873983082393
  0.1825173468366059  0.2458577501308743  0.7660731889969795
  0.1826577290762848  0.7458975650974174  0.2656847464119386
  0.2951587640083155  0.7458777864647982  0.7656574877760962
  0.7952099125979550  0.2454728005069777  0.2633553304162650
  0.6826124153325583  0.2454049885816316  0.7633840662224779
  0.6826582635751537  0.7475260043497960  0.2569292626600980
  0.7951484119757656  0.7474573088570409  0.7569666271289833
