Hf O 
 1.0000000000000000
     5.1626447605521832    0.0000001463756389   -0.0000019337780124
     0.0000001316259378    5.1391599579781539   -0.0000023909549446
    -0.0000011520370072   -0.0000024195639428    5.1436846455032166
 Hf  O  
   4   8
Direct
  0.0150689943060520  0.0078226741920799 -0.0150614404696582
 -0.0147269309157145  0.4923469197011750  0.4849433450836924
  0.4852722395351690  0.0078173844698981  0.4849412631659427
  0.5150683048293948  0.4923412836694939 -0.0150595520029869
  0.2176835201101463  0.2977543910439507  0.2054858516971289
  0.2826476645125084  0.2977481158962519  0.7054877403999447
  0.1780134547854842  0.8070799343577637  0.3090318910032337
  0.3223173523830107  0.8070727336690361  0.8090301456933197
  0.7176830499111024  0.2024087735611958  0.2054834288020428
  0.7826481184955256  0.2024154373107240  0.7054853827607867
  0.6780138294069418  0.6930831621307206  0.3090350780351909
  0.8223170903891270  0.6930902733257093  0.8090333998649333
