Hf O 
 1.0000000000000000
     5.2477492024970180   -0.0000011512338933    0.0000154401235934
    -0.0000010564206501    5.0573973182817307   -0.0000012112391285
     0.0000154089509438   -0.0000012353558722    5.0871726003771451
 Hf  O  
   4   8
Direct
  0.0169883971630729  0.0085298682503103 -0.0181293065571392
 -0.0463156417329864  0.4771287999820739  0.4818695029366308
  0.4536841050620867  0.0085311069363571  0.4818695468172510
  0.5169884631052187  0.4771306449582350 -0.0181294049376969
  0.2526400258231339  0.2797668850157563  0.2315881254529353
  0.2180240697726978  0.2797657893740639  0.7315882458585921
  0.1239705604158214  0.8086214887899427  0.3339756483474773
  0.3466988985484116  0.8086205641951784  0.8339759911232985
  0.7526400392562408  0.2058927604988508  0.2315878836891755
  0.7180240559532933  0.2058936539464495  0.7315881884078564
  0.6239706479314320  0.6770380038435168  0.3339761345069944
  0.8466989041045067  0.6770389574374861  0.8339764436846377
