Hf O 
 1.0000000000000000
     5.1905305121035301    0.0000049468097985    0.0000033377681603
     0.0000046240794363    5.0956734433179740   -0.0000158060283878
     0.0000039754895414   -0.0000159714891548    5.1145187033661799
 Hf  O  
   4   8
Direct
 -0.0254915012117226 -0.0132964079622608  0.0261738181134709
  0.0281800125132721  0.5146000420867962  0.5261706306074503
  0.5281819461062424 -0.0132930582798141  0.5261730460485314
  0.4745091025941809  0.5146028955241182  0.0261715227983792
  0.1584649654637225  0.3111733396060785  0.1854513359215569
  0.3442166268328308  0.3111776343154205  0.6854503690624960
  0.2451502365081102  0.7914142200225469  0.2840320818486798
  0.2575350859872568  0.7914182162107706  0.7840317535400960
  0.6584674755414783  0.1901428668022490  0.1854565542092691
  0.8442145270103002  0.1901390292796874  0.6854553907306985
  0.7451512972942334  0.7099014326241659  0.2840303261007765
  0.7575339315509290  0.7098978906424399  0.7840305354481406
