Hf O 
 1.0000000000000000
     5.2477491831806136   -0.0000010781558220    0.0000154230690132
    -0.0000009867437422    5.0573973088267712   -0.0000008785080459
     0.0000153925688528   -0.0000009005801698    5.0871725637085046
 Hf  O  
   4   8
Direct
 -0.0169883679365047 -0.0085298807858215  0.0181293197345894
  0.0463155917651976  0.5228711696568394  0.5181304335309209
  0.5463158612396527 -0.0085311388397436  0.5181304223436980
  0.4830115663592203  0.5228693424861600  0.0181293689393429
  0.1533011120172221  0.3229610495361428  0.1660235945655188
  0.3760293389263072  0.3229620119606658  0.6660238677460839
  0.2819759712660619  0.7941063524444901  0.2684118248834517
  0.2473599584782120  0.7941072643233799  0.7684120846795813
  0.6533011512293950  0.1913794401107353  0.1660240343867029
  0.8760294228381759  0.1913785269416156  0.6660243483109947
  0.7819759629496403  0.7202342208184330  0.2684117539906486
  0.7473599554425827  0.7202331425535170  0.7684118936739229
