Hf O 
 1.0000000000000000
     5.1626447605524799    0.0000001463761848   -0.0000019337781494
     0.0000001316264405    5.1391599579783094   -0.0000023909547535
    -0.0000011520371351   -0.0000024195637495    5.1436846455030114
 Hf  O  
   4   8
Direct
 -0.0150689943061339 -0.0078226741919306  0.0150614404703718
  0.0147269309162299  0.5076530802988666  0.5150566549163864
  0.5147277604645611 -0.0078173844698527  0.5150587368338703
  0.4849316951705059  0.5076587163308249  0.0150595520029039
  0.1776829096107242  0.3069097266740882  0.1909666001355120
  0.3219861705927874  0.3069168378697550  0.6909649219651278
  0.2173518815045314  0.7975845626895052  0.2945146172390057
  0.2823169500887238  0.7975912264391802  0.7945165711980419
  0.6776826476171887  0.1929272663312324  0.1909698543063058
  0.8219865452145446  0.1929200656421984  0.6909681089969337
  0.7173523354874197  0.7022518841032320  0.2945122596001848
  0.7823164798897512  0.7022456089554843  0.7945141483030506
