Hf O 
 1.0000000000000000
     5.1905305121033027    0.0000049468093782    0.0000033377679434
     0.0000046240790454    5.0956734433176925   -0.0000158060286169
     0.0000039754893342   -0.0000159714893857    5.1145187033663371
 Hf  O  
   4   8
Direct
  0.0254915012117279  0.0132964079622670 -0.0261738181137598
 -0.0281800125131356  0.4853999579132532  0.4738293693923914
  0.4718180538934021  0.0132930582798749  0.4738269539520752
  0.5254908974052359  0.4853971044762777 -0.0261715227989838
  0.2424660684490388  0.2901021093571632  0.2159694645524552
  0.2548487027056704  0.2900985673758176  0.7159696738992773
  0.1557854729901854  0.8098609707204414  0.3145446092696317
  0.3415325244585090  0.8098571331971095  0.8145434457902779
  0.7424649140129896  0.2085817837892931  0.2159682464600786
  0.7548497634918944  0.2085857799772602  0.7159679181514869
  0.6557833731668808  0.6888223656840883  0.3145496309373554
  0.8415350345353368  0.6888266603939410  0.8145486640791053
