Hf O 
 1.0000000000000000
     5.1566642097962623   -0.0000000566406194    0.0000019246660994
    -0.0000000514783643    5.1574937062691388   -0.0000011211265161
     0.0000023835948501   -0.0000011324861488    5.1566559289381795
 Hf  O  
   4   8
Direct
  0.0000000000000021  0.0000000000000010 -0.0000000000000020
 -0.0000000000000019  0.5000000000000044  0.4999999999999931
  0.4999999999999967  0.0000000000000010  0.4999999999999932
  0.5000000000000033  0.5000000000000022 -0.0000000000000020
  0.1960838216458059  0.3039189691996589  0.1962148158854620
  0.3039156222897061  0.3039188976674218  0.6962149598981490
  0.1960843844371467  0.8039188520640121  0.3037848266928942
  0.3039161693957616  0.8039189110963822  0.8037849740913999
  0.6960838306042476  0.1960810889036297  0.1962150259085939
  0.8039156155628518  0.1960811479359990  0.6962151733070990
  0.6960843777102930  0.6960811023325890  0.3037850401018439
  0.8039161783542029  0.6960810308003506  0.8037851841145313
