Hf O 
 1.0000000000000000
     5.4203128715335804    0.0000025837322079    0.0000456473813032
     0.0000025526902611    5.0386579746410813   -0.0000565678525449
     0.0000457908602318   -0.0000565976732796    5.1142862330998096
 Hf  O  
   4   8
Direct
  0.0475696160568561 -0.0060986714398370  0.0124674739537365
 -0.0320357794037106  0.5136858507727486  0.5124627521984140
  0.4679610485413921 -0.0060904684038991  0.5124631265911458
  0.5475658160040431  0.5136937660690818  0.0124678959486309
  0.3638492875002822  0.2049885951255367  0.1768480186449792
  0.1516791882084123  0.2049873961387676  0.6768488621499844
  0.2055163081589210  0.7392599104232486  0.2855643488034464
  0.3100284264789155  0.7392670747059605  0.7855662025418783
  0.8638477065208311  0.3026068013035256  0.1768440839374621
  0.6516805530504312  0.3026081361592659  0.6768447387976888
  0.7055173086690633  0.7683348425625171  0.2855660353030793
  0.8100270473981075  0.7683279955742358  0.7855678107074341
