Hf O 
 1.0000000000000000
     5.2914507350807227   -0.0000000000000000   -0.0000000000000051
     0.0000000000000000    5.1266087975855772    0.0000000000000000
    -0.0000121936461076    0.0000011484016656    5.0295646566593692
 Hf  O  
   4   8
Direct
 -0.0003759763166121  0.0650436419933917 -0.0004574569230320
  0.4996234105132298  0.9999678085008138  0.5322426768538765
  0.4996233112550065  0.4999674889249460  0.9995438820761642
  0.9996243853636858  0.5650437287680781  0.5322442930842649
  0.1449978773202164  0.3965509847915357  0.1977715869897717
  0.6449981982209180  0.1684665830763267  0.1977743737548351
  0.2502391904880941  0.2665362395029099  0.7269616938413096
  0.7502397838367791  0.2984757791254133  0.7269603855025908
  0.1449969358043524  0.8965513102047701  0.3340132938819824
  0.6449978021950482  0.6684668251293394  0.3340108425855920
  0.2502386102448225  0.7665356259804298  0.8048231950550128
  0.7502389824792994  0.7984752575569475  0.8048246287582012
