Hf O
 1.0000000000000000
     5.3220862606941415    0.0107777101844935    0.0000033614917799
    -0.8547060622199301    5.0726583893261852   -0.0000974436429476
     0.0000013193810000   -0.0000972619460463    5.1872288932191584
 Hf  O
   4   8
Direct
  0.0004442761340554 -0.0026703181514212 -0.0002977800433089
  0.0842418018102563  0.4473710511123465  0.4996927247016534
  0.5004464265140406 -0.0026605585113958  0.4171364422398712
  0.5842340660170169  0.4473731505325776 -0.0828738837280669
  0.3146828498618322  0.2730344633033410  0.2012906893235971
  0.2700029135836084  0.1716763490740319  0.7155395301801293
  0.1404423292902368  0.7910996732392742  0.2883491064606634
  0.4442415813579759  0.6536051230325796  0.6284669052906368
  0.8146793712409278  0.2730379579826664  0.2155369547855723
  0.7700054762903416  0.1716691959553675  0.7012889061789638
  0.6404397489318459  0.7911075535838955  0.1284675331372669
  0.9442321589703464  0.6536073588401591  0.7883418714735165
