Hf O
 1.0000000000000000
     5.2659161792208575    0.0000003543564044    0.0000110592891538
     0.0000003543564038    5.0502039247530739   -0.0000004799226094
     0.0000114148916043   -0.0000004953541381    5.0805009265258425
 Hf  O
   4   8
Direct
 -0.0000000000000000  0.0000000000000002 -0.0000000000000001
 -0.0650192911975134  0.4682164791308064  0.5000004139018012
  0.4349807412014612 -0.0000000555351009  0.4999999563764034
  0.5000001710028712  0.4682169374556773  0.0000008651399779
  0.2378429425529162  0.2706765089136651  0.2483460275231856
  0.1971431296685210  0.2706755204181963  0.7483458485342671
  0.1023877539380154  0.8022903190352603  0.3567902528802736
  0.3326043905092751  0.8022924689230254  0.8567912661738317
  0.7378437989465865  0.1975367930039007  0.2483485818766099
  0.6971425855034096  0.1975377908356288  0.7483481801874100
  0.6023876607828527  0.6659231582392898  0.3567925082994128
  0.8326048435379170  0.6659206841220694  0.8567935876980436
