Hf O 
 1.0000000000000000
     5.2390601337432896    0.0000000000000000   -0.0000000000000050
     0.0000000000000000    5.0758502946391850    0.0000000000000000
     0.0246287109658996   -0.2871193152816234    5.1073860722770998
 Hf  O  
   4   8
Direct
  0.0047699285333421 -0.0049393424367887 -0.0082938687678907
  0.5047758446365890  0.0145828974661972  0.4677560632239808
  0.4700892258858515  0.4766946955370586 -0.0097546074620166
 -0.0298469929132352  0.5329834765643152  0.4690437641036030
  0.2375278509901041  0.2884079380260214  0.2645111010496533
  0.7396719433109900  0.2202059988034054  0.2197680343532050
  0.3014234646545502  0.1419524214440886  0.7847047082176015
  0.7373980269166669  0.3621204372097316  0.7189698151452599
  0.2398995826524198  0.7893533547332215  0.2393275514085768
  0.7377371237993149  0.7211529498800666  0.1946987695811288
  0.2376497303019486  0.6476199225367256  0.7400758356924669
  0.8016156383728819  0.8678200326938463  0.6745129775679954
