Hf O 
 1.0000000000000000
     5.2390601337432896    0.0000000000000000   -0.0000000000000050
     0.0000000000000000    5.0758502946391850    0.0000000000000000
    -0.0043904052363332   -0.5113839317061450    5.1401579022615920
 Hf  O  
   4   8
Direct
  0.0043881624404179 -0.0059342318102378 -0.0000986067104264
  0.5044144225266889  0.0742311867393089  0.4540988825023842
  0.4270854126954226  0.4943666995446803 -0.0001413378701102
 -0.0728876159240339  0.5739407947522580  0.4540988005085240
  0.2086435728117881  0.3026361318033797  0.2748337358609268
  0.7234567190877603  0.2656788881412719  0.1796365205256241
  0.3048316164709668  0.1212214511581499  0.7993782473919393
  0.6260486697192800  0.4470815912754302  0.6548216210365989
  0.2234282381923673  0.8026406478708263  0.2743556638317720
  0.7086161704152452  0.7656806491600451  0.1791627119829805
  0.1260339383351073  0.6212210878745206  0.7991729330115672
  0.8048305842266267  0.9470783447696645  0.6546163931634896
