Hf O 
 1.0000000000000000
     5.2390601337432896    0.0000000000000000   -0.0000000000000050
     0.0000000000000000    5.0758502946391850    0.0000000000000000
     0.0265062409178331   -0.3339341783149755    5.1151209495155854
 Hf  O  
   4   8
Direct
  0.0148312630204258 -0.0146029262311419 -0.0066642450724174
  0.5148480135257099  0.0232104272060535  0.4665216002302201
  0.4688018572964058  0.4752879655195236 -0.0084877525782830
 -0.0311276656972733  0.5333525277420963  0.4681240086698788
  0.2402530609506057  0.2871253648640302  0.2658681695327306
  0.7441370780157128  0.2207499171089022  0.2116256514103434
  0.3039931744742410  0.1355400199146789  0.7858205157454414
  0.7225221810701387  0.3680820069690857  0.7046094676064939
  0.2443611462971073  0.7877670328941042  0.2478431560135775
  0.7404644697419531  0.7213988935056446  0.1937093471369569
  0.2227850204967120  0.6406138097476775  0.7547925230883293
  0.8041825968811245  0.8731820296774395  0.6737834175727365
