Hf O 
 1.0000000000000000
     5.2390601337432896    0.0000000000000000   -0.0000000000000050
     0.0000000000000000    5.0758502946391850    0.0000000000000000
     0.0227696713785727   -0.2407611887800084    5.0999862110551408
 Hf  O  
   4   8
Direct
 -0.0053269903874675  0.0047809783173903 -0.0099057452409042
  0.4946677911609000  0.0058880922353904  0.4689730143231316
  0.4713563853247315  0.4780151368875801 -0.0108113645439831
 -0.0285854105094446  0.5326907959465909  0.4697567004510498
  0.2348261582627469  0.2896843201903423  0.2631738544553647
  0.7352646821525779  0.2197414434728324  0.2278132020705433
  0.2989250316130259  0.1483178281685908  0.7835369294328474
  0.7522163470514558  0.3562631599761837  0.7333292342845201
  0.2354954940055412  0.7908491272679714  0.2309135780899012
  0.7350332893807179  0.7209033910196063  0.1956726436123467
  0.2524548735496298  0.6545105338950560  0.7253667349081911
  0.7991193851325665  0.8624925814114509  0.6752988411301613
