Hf O 
 1.0000000000000000
     5.2390601337432896    0.0000000000000000   -0.0000000000000050
     0.0000000000000000    5.0758502946391850    0.0000000000000000
     0.0245689015730043   -0.1899385623249192    5.0900243218825159
 Hf  O  
   4   8
Direct
 -0.0155619780325227  0.0156499255060355 -0.0100653314903943
  0.4844247977054552 -0.0082553997291988  0.4695536891972910
  0.4739413031755804  0.4764408222172508 -0.0102050062625080
 -0.0260093966283309  0.5309856099247144  0.4696615320714202
  0.2318769065703403  0.2862711488630289  0.2623798648139477
  0.7312869621234461  0.2200049041441759  0.2405100783377188
  0.3025219848155943  0.1497095304859887  0.7846654730289121
  0.7748504609483314  0.3523968075301711  0.7542155347358090
  0.2314819101545817  0.7873226928168107  0.2187332495690388
  0.7320497943603425  0.7210509530032106  0.1969702334172343
  0.2750297797014572  0.6550852119154050  0.7050257156836018
  0.8026754806815226  0.8578099517514558  0.6746605131486165
