Hf O 
 1.0000000000000000
     5.2390601337432896    0.0000000000000000   -0.0000000000000050
     0.0000000000000000    5.0758502946391850    0.0000000000000000
     0.0418512710943014   -0.1592299937773940    5.0706548541486134
 Hf  O  
   4   8
Direct
 -0.0126037930262462  0.0146914719807626 -0.0031255297871620
  0.4873843615243914 -0.0438538033328853  0.4685827839189562
  0.4875738335605935  0.4554015379833445 -0.0029641223645663
 -0.0124022232054327  0.5154439214416507  0.4684953842960103
  0.2381864768851404  0.2558175972668294  0.2675790508304385
  0.7386495789346733  0.2148480335937984  0.2659393150941873
  0.3353644051559797  0.1227460539837663  0.7971540611152401
  0.8272428094665942  0.3474424191824540  0.7920901416428073
  0.2387022986599342  0.7559524054582766  0.1994898088097524
  0.7382346873400693  0.7149777789823581  0.1979113424373458
  0.3272611386090186  0.6234333890309345  0.6733827437842700
  0.8353811868790436  0.8481450086987005  0.6683080703426874
