Hf O 
 1.0000000000000000
     5.2390601337432896    0.0000000000000000   -0.0000000000000050
     0.0000000000000000    5.0758502946391850    0.0000000000000000
     0.0158787874901752   -0.4529104831019627    5.1434540422490080
 Hf  O  
   4   8
Direct
  0.0216983274117395 -0.0217931291590082  0.0010737340150263
  0.5217395437570883  0.0518714752071907  0.4607922503470314
  0.4487936619710570  0.4785350599749681  0.0008895642998438
 -0.0511540890139523  0.5515640087898601  0.4608699028075519
  0.2308719007882712  0.2893077805548909  0.2749982048405474
  0.7405276605211339  0.2407757770301131  0.1895210746982369
  0.3053457955593568  0.1212664415163656  0.7938845898659270
  0.6681757131199003  0.4080309251112234  0.6714301532070108
  0.2405498906399760  0.7892797101250729  0.2722679502924041
  0.7308972223778706  0.7407514059768678  0.1868042159703868
  0.1681826260327802  0.6221019021747664  0.7903727674184048
  0.8053857925215610  0.9088502306254815  0.6679035127456981
