Hf O 
 1.0000000000000000
     5.4203128145457775    0.0000025743063752    0.0000456513399472
     0.0000025432679618    5.0386579669913774   -0.0000565298710084
     0.0000457947887897   -0.0000565600707009    5.1142862066630714
 Hf  O  
   4   8
Direct
  0.0320389196219685  0.0060908473378409 -0.0124631517490163
 -0.0475658447445527  0.4863065964709210  0.4875321156471417
  0.4524303757282795  0.0060990500763015  0.4875324988555633
  0.5320357646251267  0.4863145138763599 -0.0124627416703662
  0.2944836561109425  0.2607403849872001  0.2144355691435062
  0.1899715677255529  0.2607332306621221  0.7144337190629767
  0.1361506898725516  0.7950117064955454  0.3231519254800005
  0.3483207955913633  0.7950129165217588  0.8231510888208287
  0.7944826350212312  0.2316654049411341  0.2144340724130969
  0.6899729601400548  0.2316722593990598  0.7144322955208321
  0.6361522346887927  0.6973934527709669  0.3231560025012064
  0.8483194582514181  0.6973921244060518  0.8231553433996098
