Hf O 
 1.0000000000000000
     5.4588998786990084    0.0000020367682546    0.0000445534067624
     0.0000020145578756    5.0324733264089243   -0.0000651185779342
     0.0000447887342988   -0.0000652547395780    5.1249358262644140
 Hf  O  
   4   8
Direct
  0.0355652023949416  0.0050277224356074 -0.0100482571375864
 -0.0504455222733911  0.4876800593312546  0.4899462553493078
  0.4495494721121490  0.0050358088345079  0.4899469581859935
  0.5355607541786362  0.4876880779385403 -0.0100484687985408
  0.3010841395917519  0.2563449830834965  0.2102345218224250
  0.1840141665188750  0.2563370532815572  0.7102324803360675
  0.1366563972024625  0.7924849657880851  0.3239008954905696
  0.3484595097258325  0.7924865113609371  0.8238999310294091
  0.8010838123262092  0.2363792143722114  0.2102266678593299
  0.6840147604686155  0.2363867654787036  0.7102246415301456
  0.6366592502191882  0.7002371041443758  0.3239031451903553
  0.8484568721356419  0.7002355075767500  0.8239022817702465
