Hf O 
 1.0000000000000000
     5.4588999588856542    0.0000020513015451    0.0000445475970207
     0.0000020291056816    5.0324733390469101   -0.0000651910472360
     0.0000447829635117   -0.0000653265192498    5.1249358685426234
 Hf  O  
   4   8
Direct
  0.0504505111094544 -0.0050351650400643  0.0100530001923613
 -0.0355607782440618  0.5123125416393338  0.5100484840391457
  0.4644347431479666 -0.0050270783554525  0.5100482181997347
  0.5504454729223270  0.5123205571993911  0.0100537612663412
  0.3633435611913405  0.2075155527446990  0.1760990159434755
  0.1515404632910158  0.2075140241896969  0.6760999906737180
  0.1989158018002120  0.7436555241143138  0.2897653459364199
  0.3159858198838542  0.7436634689401592  0.7897673924127711
  0.8633406501953759  0.2997633345702664  0.1760969954290268
  0.6515431462218364  0.2997649381261737  0.6760978543163905
  0.6989160924248177  0.7636212143100094  0.2897735057345068
  0.8159852512504279  0.7636136709912829  0.7897755318543730
