Hf O 
 1.0000000000000000
     5.4974870462377270    0.0000015188708823    0.0000434478127381
     0.0000015055211020    5.0262887034527388   -0.0000738142419271
     0.0000437750667915   -0.0000740553652200    5.1355855039854372
 Hf  O  
   4   8
Direct
  0.0533314061620526 -0.0039716586402917  0.0076385264309860
 -0.0390857770844129  0.5109392325059191  0.5076342158798776
  0.4609084377545410 -0.0039636883070059  0.5076333098083234
  0.5533251298406110  0.5109473483297005  0.0076396265840515
  0.3628378348823987  0.2100425103638614  0.1753500132419718
  0.1514017383736194  0.2100406522406262  0.6753511191974514
  0.1923152954415029  0.7480511378053791  0.2939663430693934
  0.3219432132887929  0.7480598631743580  0.7939685822836642
  0.8628335938699211  0.2969198678370071  0.1753499069205914
  0.6514057393932415  0.2969217400930814  0.6753509698350919
  0.6923148761805722  0.7589075860575014  0.2939809761659341
  0.8219434551027479  0.7588993464083301  0.7939832530013120
