Hf O 
 1.0000000000000000
     5.4974869428522393    0.0000014992301341    0.0000434554735776
     0.0000014858477895    5.0262886858264721   -0.0000737072848600
     0.0000437826798079   -0.0000739494084551    5.1355854458657566
 Hf  O  
   4   8
Direct
  0.0390914851679146  0.0039645975333739 -0.0076333625261566
 -0.0533251998022295  0.4890535221915882  0.4923603950514742
  0.4466685684960184  0.0039725675927142  0.4923614175164236
  0.5390857437321459  0.4890616420007207 -0.0076341959267154
  0.3076846230725613  0.2519495811797929  0.2060334745013437
  0.1780567653121971  0.2519408759009922  0.7060312416091581
  0.1371621045323734  0.7899582250806245  0.3246498655011386
  0.3485982238603015  0.7899601062001156  0.8246487732379894
  0.8076849896311872  0.2410930238032887  0.2060192633055629
  0.6780565607971762  0.2411012715583473  0.7060169875394589
  0.6371662657495837  0.7030807555177847  0.3246502878795042
  0.8485942860198655  0.7030788907474484  0.8246492201408826
