Ga N 
 1.0000000000000000
     1.7979393660000000   -2.1744695290000000   -0.0000116921778509
     1.7979393669999999    2.1744695300000001    0.0000117031940356
     0.0000000120000000    0.0000219880000000    4.6956565724406785
 Ga  N  
   2   2
Direct
  0.6545117614939641  0.3454885874565199  0.5218916589854050
  0.2534757930606025  0.7465245590039686  0.0218936953240356
  0.6862525554816938  0.3137477908199697  0.9214048793766955
  0.2217252397600366  0.7782751096204171  0.4214044666186204
