Hf O 
 1.0000000000000000
     5.3432789581808366   -0.2203146908127109   -0.0081127776486560
    -0.6340026940791399    5.1106129207346447   -0.0078620889840141
     0.0080944638399144    0.0090004399955814    5.1644473792486743
 Hf  O  
   4   8
Direct
 -0.0029950392717254 -0.0008958311064958  0.0037267901073936
  0.0789020123728193  0.4508146338815346  0.5037356884052402
  0.4969918648345748 -0.0009185313542237  0.4217706428483229
  0.5789156173991359  0.4508377470907506 -0.0782212840881292
  0.3133153395761272  0.2739033865280175  0.2071384075004087
  0.2626058790378104  0.1759762518916770  0.7183917905614187
  0.1464373840883557  0.7877241291833732  0.2806626929759670
  0.4294788733379222  0.6621172890585336  0.6447437702090792
  0.8133235040263537  0.2739475496033825  0.2183644561289426
  0.7626161586558585  0.1760256250797063  0.7071108583723038
  0.6464256822401340  0.7878148748390494  0.1447398501054620
  0.9294640186591164  0.6622133468012574  0.7806526831972915
