Hf O 
 1.0000000000000000
     5.3539917604270393   -0.3323577838523143   -0.0382133726283327
    -0.5198909393799371    5.1273353990218382    0.0011802781506939
     0.0363429167654096    0.0025551723870324    5.1444033391353479
 Hf  O  
   4   8
Direct
 -0.0118318427732976  0.0032864859020516  0.0110108293430404
  0.0675746308703867  0.4574637657580807  0.5110350763907634
  0.4881601855265233  0.0032397041461811  0.4303314979468855
  0.5675895212282565  0.4574450695289046 -0.0696425531959300
  0.3060564226716235  0.2773124648810755  0.2165201069715419
  0.2497086867616863  0.1834558854525665  0.7249079699885881
  0.1454936525549231  0.7877907794049849  0.2782174774220244
  0.4102365641068907  0.6729596399606227  0.6631835029730664
  0.8060502689392082  0.2772947157014024  0.2248650891422184
  0.7497040594613863  0.1834345040901301  0.7164807291262202
  0.6455029011207790  0.7877972148748659  0.1631493453480574
  0.9102346179017323  0.6729416190532375  0.7782108897124550
