Hf O 
 1.0000000000000000
     5.5722979422313603   -0.0000150716604674    0.0000341409154978
    -0.0000150318921392    5.0185539561500656   -0.0000006128285153
     0.0000346351069298   -0.0000006178417522    5.1626838831282562
 Hf  O  
   4   8
Direct
  0.0519849209529296 -0.0000073068779249  0.0000036416532052
 -0.0519839417968315  0.4999942662190565  0.4999986035751620
  0.4480158789718195 -0.0000002696783487  0.4999980942132042
  0.5519844623311772  0.4999989015963090  0.0000002103475055
  0.3400194188546542  0.2302672954274155  0.1880447124254911
  0.1599747251327827  0.2302630274821807  0.6880443357363860
  0.1599803457353504  0.7697262623317523  0.3119590443945153
  0.3400259789494200  0.7697296618350700  0.8119592946011450
  0.8400198534224159  0.2697270864769701  0.1880401983961087
  0.6599736324997181  0.2697304277855750  0.6880400832574467
  0.6599824113766988  0.7302680677478183  0.3119551705545103
  0.8400252720799353  0.7302631146606913  0.8119556885821453
