Hf O 
 1.0000000000000000
     5.2878832603907551   -0.0000041256104074   -0.0000086053595379
    -0.0000040326483134    5.0559904084082135    0.0000099106815687
    -0.0000075508563106    0.0000099642686258    5.0869617855909333
 Hf  O  
   4   8
Direct
  0.0126815171956970  0.0048241209164500 -0.0105585161060723
 -0.0504832075904158  0.4767062980622005  0.4894437875401813
  0.4495175380672141  0.0048237637772551  0.4894406174633854
  0.5126822053408663  0.4767066705132464 -0.0105565078873573
  0.2599816511246310  0.2715890560399746  0.2365601324121233
  0.2022228074791057  0.2715908754748605  0.7365601836229326
  0.1223288679763677  0.8010070670698624  0.3351104454120515
  0.3398806676826819  0.8010108416139400  0.8351126667084724
  0.7599825335783417  0.2099274162140549  0.2365706540942439
  0.7022216087365483  0.2099263536273854  0.7365708446399695
  0.6223247206098963  0.6805092961015883  0.3351180041704906
  0.8398845235529042  0.6805066083909201  0.8351196657546034
