Hf O 
 1.0000000000000000
     5.2878832603958399   -0.0000041256095409   -0.0000086053602158
    -0.0000040326474584    5.0559904084161644    0.0000099106900535
    -0.0000075508570120    0.0000099642771153    5.0869617855823543
 Hf  O  
   4   8
Direct
  0.0504824619344122 -0.0048237637478073  0.0105593825492982
 -0.0126822053392052  0.5232933295133999  0.5105565078983153
  0.4873184828078916 -0.0048241208880987  0.5105585161179254
  0.5504832075879402  0.5232937019641285  0.0105562124715413
  0.3776711320252503  0.1989929329435818  0.1648895545901094
  0.1601193323183742  0.1989891584015446  0.6648873332922138
  0.2400183488726951  0.7284109439733523  0.2634398675861584
  0.2977771925260292  0.7284091245402262  0.7634398163753394
  0.8776752793833268  0.3194907039144448  0.1648819958456892
  0.6601154764557596  0.3194933916268840  0.6648803342624493
  0.7400174664136621  0.7900725838027778  0.2634293459248598
  0.7977783912726608  0.7900736463908788  0.7634291553787277
