Hf O 
 1.0000000000000000
     5.3722607957069703   -0.0000001887731809    0.0000284065470552
    -0.0000001699158820    5.0512871406888422    0.0000141087623378
     0.0000286676993782    0.0000141520872754    5.1033405667600045
 Hf  O  
   4   8
Direct
  0.0453195130541987 -0.0054519857790219  0.0112411181475276
 -0.0249487627105395  0.5153992113760488  0.5112363450886868
  0.4750536156874947 -0.0054477704584519  0.5112385747252726
  0.5453214077169051  0.5154029839538410  0.0112384038368584
  0.3626570114147776  0.2068242985260554  0.1786605836057528
  0.1577137625384548  0.2068230885226710  0.6786603024888017
  0.2135402321355485  0.7374021544312733  0.2771618452425623
  0.3068395264563325  0.7374044154624595  0.7771624933747850
  0.8626604725548237  0.3031405353349046  0.1786538093219344
  0.6577103576229226  0.3031420132699025  0.6786536553461510
  0.7135408429483332  0.7725653108618000  0.2771471390157662
  0.8068389184305956  0.7725630944895908  0.7771479449795110
