Hf O 
 1.0000000000000000
     5.4923414982109655   -0.0000003220005292    0.0000284435042873
    -0.0000002911204368    5.0362310252890108   -0.0000753342096396
     0.0000289235251946   -0.0000750603853317    5.1353804326494368
 Hf  O  
   4   8
Direct
  0.0505035653671556 -0.0027982098233033  0.0051658209014965
 -0.0386522539498852  0.5085800945210155  0.5051627284034810
  0.4613427675801672 -0.0027928415930245  0.5051626781775429
  0.5504987840921072  0.5085850353562636  0.0051658070773012
  0.3547719233400985  0.2167267670735910  0.1816422223327240
  0.1570641398551897  0.2167238680236201  0.6816419171763780
  0.1875227106073963  0.7524661620927050  0.2940433189791183
  0.3243254561533997  0.7524705438379331  0.7940440629684589
  0.8547704598551075  0.2890662983097628  0.1816343153211255
  0.6570660275266318  0.2890691880533351  0.6816338049930979
  0.6875244781174344  0.7533253630343772  0.2940443592330384
  0.8243237825452610  0.7533207037421148  0.7940452029691979
