Hf O 
 1.0000000000000000
     5.4923415406806742   -0.0000003237616309    0.0000284449097413
    -0.0000002928817473    5.0362310186177233   -0.0000753368275705
     0.0000289249195403   -0.0000750629881531    5.1353804451632206
 Hf  O  
   4   8
Direct
  0.0386572384868189  0.0027929192500859 -0.0051626772095844
 -0.0504987944160195  0.4914150451316472  0.4948341941726907
  0.4494964369597015  0.0027982881103468  0.4948341790012580
  0.5386522541133006  0.4914199861171539 -0.0051627274180982
  0.3124773078058015  0.2475338789200419  0.2059566446398862
  0.1756745274661551  0.2475295043760655  0.7059558964299705
  0.1452280901947378  0.7832732761606310  0.3183577487159333
  0.3429358494766641  0.7832761822626875  0.8183580492838144
  0.8124755129646218  0.2466746792078328  0.2059556703153271
  0.6756762185397559  0.2466793561843335  0.7059548280489640
  0.6452295233817231  0.7109337429878934  0.3183657174786705
  0.8429339816434668  0.7109308702371138  0.8183662296214921
