Hf O 
 1.0000000000000000
     5.3722607954111128   -0.0000001888284804    0.0000284066449881
    -0.0000001699706635    5.0512871406140958    0.0000141085780297
     0.0000286677966848    0.0000141519031203    5.1033405669332810
 Hf  O  
   4   8
Direct
  0.0249463844564664  0.0054477724283033 -0.0112385744145484
 -0.0453214078837597  0.4845970178633340  0.4887615963264803
  0.4546804871870627  0.0054519877879227  0.4887588821188845
  0.5249487626461864  0.4846007904585137 -0.0112363449343391
  0.2864597679835994  0.2625978465011630  0.2228381543523550
  0.1931604734833563  0.2625955855941765  0.7228375061175828
  0.1373429888566539  0.7931757024247728  0.3213394160527869
  0.3422862373022720  0.7931769125645843  0.8213396970706421
  0.7864591566741822  0.2274346899484003  0.2228528619679603
  0.6931610818240175  0.2274369066413393  0.7228520560331895
  0.6373395270872242  0.6968594655188949  0.3213461915119605
  0.8422896426425361  0.6968579878584906  0.8213463455434344
