Ga N 
 1.0000000000000000
     1.7995328847581569   -2.1651800365777136   -0.0000108561153875
     1.7995328855582204    2.1651800369367997    0.0000108553879491
    -0.0000000020615345    0.0000200673195991    4.6977813275022244
 Ga  N  
   2   2
Cartesian
  1.7995328804772597 -0.6712604977846428  2.4538956391107631
  1.7995328749376482  1.0697427322704169  4.8027985764034904
  1.7995328823025187 -0.8146479131268153  4.3263978600664483
  1.7995328974881206  1.2131569478520323  1.9775052263705033
