Hf O 
 1.0000000000000000
     5.1914494837082046    0.0000003163060342    0.0000059388858374
     0.0000003053142310    5.1183397213664348   -0.0000008961208489
     0.0000062319418375   -0.0000009132671518    5.1363414679897321
 Hf  O  
   4   8
Direct
 -0.0070950115209002 -0.0042187058067567  0.0073656349197898
  0.0173184001564381  0.5092233492053293  0.5073658417796649
  0.5173181270561950 -0.0042187510182393  0.5073655087510063
  0.4929045079443717  0.5092230198746022  0.0073657933179726
  0.1873289067172280  0.3077638298124801  0.1856222883137920
  0.3228963416907615  0.3077633276539012  0.6856227522810172
  0.2234249775473591  0.7997575292255573  0.2904746313155936
  0.2868011494527411  0.7997575656757024  0.7904751197218298
  0.6873288778721004  0.1972334115889801  0.1856234335194193
  0.8228965356606617  0.1972335490503711  0.6856237876921627
  0.7234242790409987  0.7052380005725466  0.2904762830795547
  0.7868018776074770  0.7052378036928104  0.7904768924178324
