Hf O 
 1.0000000000000000
     5.1914494837081149    0.0000003163060359    0.0000059388859036
     0.0000003053142323    5.1183397213664854   -0.0000008961208951
     0.0000062319419003   -0.0000009132671984    5.1363414679897268
 Hf  O  
   4   8
Direct
  0.0070950115207894  0.0042187058067665 -0.0073656349198443
 -0.0173184001564882  0.4907766507947741  0.4926341582204558
  0.4826818729438168  0.0042187510183564  0.4926344912488947
  0.5070954920557214  0.4907769801251776 -0.0073657933179286
  0.2131981223925251  0.2947621963072244  0.2095231075822520
  0.2765757209590312  0.2947619994274019  0.7095237169204766
  0.1771034643393946  0.8027664509496023  0.3143762123077569
  0.3126711221278307  0.8027665884111306  0.8143765664805376
  0.7131988505472319  0.2002424343243335  0.2095248802781994
  0.7765750224525779  0.2002424707746095  0.7095253686842519
  0.6771036583092895  0.6922366723460044  0.3143772477189628
  0.8126710932828738  0.6922361701875236  0.8143777116862069
