Hf O 
 1.0000000000000000
     5.2059052546511069   -0.0000007221278160    0.0000072456222899
    -0.0000006751295144    5.0906844110307397   -0.0000030384974542
     0.0000075376331003   -0.0000030699281659    5.1175460770624923
 Hf  O  
   4   8
Direct
 -0.0102213088647013 -0.0063337011232372  0.0107840484653285
  0.0341944783056729  0.5180510157770297  0.5107835250579967
  0.5341946936902281 -0.0063336905668039  0.5107840242355189
  0.4897790393654980  0.5180509624502279  0.0107835252914761
  0.1771645503051486  0.3148353842276312  0.1737780074334667
  0.3468080788707690  0.3148351051052349  0.6737786448107276
  0.2494669932008267  0.7985971981243994  0.2766624486203584
  0.2745143050732054  0.7985978933657087  0.7766634323444769
  0.6771654336489432  0.1968892644245513  0.1737799554368778
  0.8468073449133834  0.1968893269884850  0.6737804563092463
  0.7494668052691893  0.7131268603172568  0.2766634862737486
  0.7745144744895590  0.7131260170444670  0.7766644829157171
