Hf O 
 1.0000000000000000
     5.2059052546510536   -0.0000007221279380    0.0000072456222947
    -0.0000006751296304    5.0906844110308525   -0.0000030384974978
     0.0000075376331060   -0.0000030699282098    5.1175460770624008
 Hf  O  
   4   8
Direct
  0.0102213088646292  0.0063337011232282 -0.0107840484651784
 -0.0341944783057630  0.4819489842231181  0.4892164749420060
  0.4658053063097948  0.0063336905668097  0.4892159757644590
  0.5102209606345043  0.4819490375497740 -0.0107835252914707
  0.2254855255104543  0.2868739829553761  0.2233355170842652
  0.2505331947307897  0.2868731396827799  0.7233365137263388
  0.1531926550866511  0.8031106730113264  0.3262195436906921
  0.3228345663508014  0.8031107355755446  0.8262200445633275
  0.7254856949268432  0.2014021066342600  0.2233365676554659
  0.7505330067991151  0.2014028018757467  0.7233375513796753
  0.6531919211293109  0.6851648948948337  0.3262213551892556
  0.8228354496948858  0.6851646157723816  0.8262219925666038
