Hf O 
 1.0000000000000000
     5.2322283659731736   -0.0000019651400577    0.0000069176488618
    -0.0000018608403826    5.0626321894905653   -0.0000113229123367
     0.0000073111586058   -0.0000114016225717    5.0957378894315237
 Hf  O  
   4   8
Direct
  0.0074899932805401  0.0048700451842884 -0.0082473742647401
 -0.0501091364760079  0.4742947363094923  0.4917526587988846
  0.4498906279721417  0.0048707272147962  0.4917523471701351
  0.5074893805710931  0.4742951642158582 -0.0082468812096840
  0.2342282817918158  0.2786057270274255  0.2369239479132160
  0.2231414759639745  0.2786055616181300  0.7369242949777151
  0.1277466069586362  0.8028035260594459  0.3402548274965664
  0.3296260318535754  0.8028041258607210  0.8402554157265498
  0.7342283462116713  0.2005520347565080  0.2369254994599030
  0.7231413708571752  0.2005523055878837  0.7369257690840259
  0.6277454097612686  0.6763534870388266  0.3402572363226694
  0.8296274137102552  0.6763525874009441  0.8402579841486841
