Hf O 
 1.0000000000000000
     5.1866003462147630    0.0000001075769872    0.0000081372588565
     0.0000001072283223    5.1307428535437740   -0.0000019201325389
     0.0000082856728088   -0.0000019450512158    5.1445737442746466
 Hf  O  
   4   8
Direct
 -0.0000000000000001 -0.0000000000000001  0.0000000000000001
  0.0000000000000004  0.5000000000000027  0.4999999999999982
  0.4999999999999999 -0.0000000000000001  0.4999999999999980
  0.5000000000000001  0.5000000000000020  0.0000000000000001
  0.1997460910866639  0.3015861320061895  0.1969032281539729
  0.3002514557476113  0.3015856491489895  0.6969039232856781
  0.1997489273841009  0.8015853180165980  0.3030947370583285
  0.3002534806765141  0.8015856586896150  0.8030953595834934
  0.6997465193234871  0.1984143413103892  0.1969046404165019
  0.8002510726159019  0.1984146819834071  0.6969052629416678
  0.6997485442523915  0.6984143508510159  0.3030960767143179
  0.8002539089133379  0.6984138679938152  0.8030967718460231
