Hf O 
 1.0000000000000000
     5.2322283659731994   -0.0000019651400018    0.0000069176488023
    -0.0000018608403294    5.0626321894905617   -0.0000113229123401
     0.0000073111585487   -0.0000114016225752    5.0957378894315681
 Hf  O  
   4   8
Direct
 -0.0074899932805473 -0.0048700451843757  0.0082473742648415
  0.0501091364759869  0.5257052636904812  0.5082473412011140
  0.5501093720279860 -0.0048707272148714  0.5082476528298631
  0.4925106194288659  0.5257048357841511  0.0082468812097251
  0.1703725862897438  0.3236474125989600  0.1597420158513035
  0.3722545902386951  0.3236465129611516  0.6597427636773482
  0.2768586291429087  0.7994476944122563  0.2630742309159916
  0.2657716537883141  0.7994479652433798  0.7630745005401034
  0.6703739681463553  0.1971958741392805  0.1597445842733917
  0.8722533930414119  0.1971964739405553  0.6597451725034490
  0.7768585240359116  0.7213944383818792  0.2630757050223594
  0.7657717182080915  0.7213942729725494  0.7630760520867226
