Hf O 
 1.0000000000000000
     5.2659161792208575    0.0000003543564044    0.0000110592891538
     0.0000003543564038    5.0502039247530739   -0.0000004799226094
     0.0000114148916043   -0.0000004953541381    5.0805009265258416
 Hf  O  
   4   8
Direct
  0.0650192587985388  0.0000000555351009  0.0000000436235966
 -0.0000001710028712  0.5317830625443229  0.4999991348600220
  0.5000000000000000 -0.0000000000000004  0.5000000000000001
  0.5650192911975134  0.5317835208691937 -0.0000004139018015
  0.3976122460619846  0.1977096809647398  0.1432097471197264
  0.1673956094907249  0.1977075310769746  0.6432087338261678
  0.2621570574470838  0.7293234910863354  0.2516539724768144
  0.3028568703314790  0.7293244795818039  0.7516541514657324
  0.8976123392171474  0.3340768417607107  0.1432074917005871
  0.6673951564620830  0.3340793158779307  0.6432064123019556
  0.7621562010534135  0.8024632069960994  0.2516514181233900
  0.8028574144965904  0.8024622091643712  0.7516518198125898
