Hf O 
 1.0000000000000000
     5.3766754621856858    0.0000008950010666    0.0000117303797432
     0.0000008889094359    5.0521458870894564   -0.0000011717939602
     0.0000122927406270   -0.0000011925329552    5.1029288047449128
 Hf  O  
   4   8
Direct
  0.0471978625607330 -0.0030414651703551  0.0061173303369806
 -0.0205076147052048  0.5160832806707284  0.5061159964697383
  0.4794929559715581 -0.0030385393650988  0.5061164905611525
  0.5471984298940484  0.5160860818522124  0.0061172203949043
  0.3632959009832070  0.2118465501769015  0.1791438864593398
  0.1633947129621935  0.2118467134225702  0.6791443451305483
  0.2142101874190066  0.7404184098213675  0.2715757302855205
  0.3124827506211848  0.7404200181891345  0.7715762664450014
  0.8632965641552087  0.3012051412399296  0.1791421969730946
  0.6633940709337092  0.3012050432288154  0.6791425987606730
  0.7142105291958901  0.7726340116180769  0.2715734180485148
  0.8124823064776159  0.7726325248668791  0.7715737918924219
