Hf O 
 1.0000000000000000
     5.4463369330945790    0.0000000694096786    0.0000179590016217
     0.0000000936077795    5.0493252459505147   -0.0000002084369472
     0.0000185211155651   -0.0000001388977324    5.1200902829828818
 Hf  O  
   4   8
Direct
  0.0311048350676929  0.0017699152798501 -0.0033482991055950
 -0.0440429272120474  0.4919108389574626  0.4966511049966820
  0.4559581853202280  0.0017736336960817  0.4966498453338548
  0.5311058596768435  0.4919145700981487 -0.0033469603441284
  0.3094833287608348  0.2476975896499994  0.2147601646298412
  0.1775761000463150  0.2476948211315046  0.7147596233149237
  0.1519249729526822  0.7773416503318025  0.3095065087313590
  0.3351413263401157  0.7773427417942319  0.8095064059826526
  0.8094831799867217  0.2459721648573273  0.2147653029650863
  0.6775762578772639  0.2459748845668976  0.7147647672830538
  0.6519245264214439  0.7163290479659044  0.3095093636202809
  0.8351417924037497  0.7163279415010700  0.8095092194201668
