Hf O 
 1.0000000000000000
     5.4463369331049316    0.0000000694093460    0.0000179590019928
     0.0000000936074516    5.0493252459504960   -0.0000002084362664
     0.0000185211159346   -0.0000001388970497    5.1200902829856876
 Hf  O  
   4   8
Direct
  0.0440418146361407 -0.0017736338007950  0.0033501546165281
 -0.0311058597002525  0.5080854300167086  0.5033469602635919
  0.4688951648879233 -0.0017699153836394  0.5033482990556567
  0.5440429271893868  0.5080891611577363  0.0033488949221287
  0.3480750270390404  0.2226583496728878  0.1904934912738980
  0.1648586736621370  0.2226572582115371  0.6904935940216448
  0.1905166712300379  0.7523024103560636  0.2852398353752142
  0.3224238999574544  0.7523051788747859  0.7852403766905305
  0.8480754735703053  0.2836709520260962  0.1904906363842204
  0.6648582075982721  0.2836720584910554  0.6904907805845950
  0.6905168200040863  0.7540278351346293  0.2852346970402044
  0.8224237421259831  0.7540251154238945  0.7852352327223862
