Hf O 
 1.0000000000000000
     5.3068210574842292   -0.0000036095301982    0.0000134747004638
    -0.0000034759788185    5.0530784372948307   -0.0000390751332186
     0.0000138449435353   -0.0000393168784564    5.0887483445036557
 Hf  O  
   4   8
Direct
  0.0536178025864138 -0.0026595733949860  0.0056823331400229
 -0.0100006298363844  0.5239675570856003  0.5056824192520673
  0.4899978906592448 -0.0026584703577753  0.5056823909088439
  0.5536170954438575  0.5239679102496079  0.0056822586531852
  0.3793742345132196  0.2031184031513391  0.1637725029275385
  0.1642210483445994  0.2031167724470947  0.6637719268383485
  0.2387010609446802  0.7321171119600559  0.2600371098887586
  0.3048969023668854  0.7321182977272742  0.7600374256291026
  0.8793756464014658  0.3182034516882288  0.1637662930883643
  0.6642197335997112  0.3182052359026424  0.6637656473806922
  0.7387022011365486  0.7892058468821097  0.2600305771335478
  0.8048957349396262  0.7892046339552306  0.7600306833030845
