Hf O 
 1.0000000000000000
     5.4762751642927583    0.0000002564092972    0.0000193823586305
     0.0000002747926016    5.0475405031584550    0.0000002522821535
     0.0000199517437199    0.0000002524236673    5.1283238977408292
 Hf  O  
   4   8
Direct
  0.0394948154748184 -0.0000019872139687  0.0000010049849827
 -0.0394947979753154  0.4999977941175803  0.4999991208836160
  0.4605052047584638  0.0000024036450438  0.4999991472184943
  0.5394947949879259  0.5000021121697209  0.0000009170031998
  0.3306585092350638  0.2348480443650448  0.2016444852153038
  0.1693377456123614  0.2348459005982672  0.7016441881664361
  0.1693414962948147  0.7651519520666537  0.2983555113017784
  0.3306622525830998  0.7651540958336654  0.7983558083507329
  0.8306584304887041  0.2651519465911509  0.2016444299696245
  0.6693377751514389  0.2651541215670348  0.7016441778823470
  0.6693415750412213  0.7348480587998508  0.2983555665464346
  0.8306622230439705  0.7348458838237397  0.7983558186338041
