Hf O 
 1.0000000000000000
     5.3068210574837194   -0.0000036095300263    0.0000134746997927
    -0.0000034759786533    5.0530784372955235   -0.0000390751337132
     0.0000138449428817   -0.0000393168789535    5.0887483445035517
 Hf  O  
   4   8
Direct
  0.0100021093404882  0.0026584703578570 -0.0056823909091407
 -0.0536170954440229  0.4760320897506917  0.4943177413468068
  0.4463821974134344  0.0026595733951115  0.4943176668594259
  0.5100006298368712  0.4760324429143741 -0.0056824192519475
  0.2612989390558595  0.2678828880396508  0.2399628901119156
  0.1951030976330826  0.2678817022728809  0.7399625743705209
  0.1206257654866198  0.7968815968492043  0.3362274970727584
  0.3357789516552518  0.7968832275527095  0.8362280731612526
  0.7612977988633822  0.2107941531177377  0.2399694228669133
  0.6951042650610849  0.2107953660448179  0.7399693166969230
  0.6206243535981433  0.6817965483124304  0.3362337069116974
  0.8357802664003292  0.6817947640977799  0.8362343526195591
