Hf O 
 1.0000000000000000
     5.3766754621859976    0.0000008950012735    0.0000117303783335
     0.0000008889096348    5.0521458870887566   -0.0000011717952114
     0.0000122927392450   -0.0000011925342113    5.1029288047448436
 Hf  O  
   4   8
Direct
  0.0205070440286983  0.0030385393652931 -0.0061164905604473
 -0.0471984298938609  0.4839139181474711  0.4938827796045411
  0.4528021374393546  0.0030414651701959  0.4938826696626148
  0.5205076147058070  0.4839167193294110 -0.0061159964687137
  0.2857898125814806  0.2595815901787853  0.2284242697140725
  0.1875172493807545  0.2595799818109417  0.7284237335561355
  0.1367040990167780  0.7881534498235144  0.3208561135405272
  0.3366052870383527  0.7881532865774885  0.8208556548698921
  0.7857894708044247  0.2273659883822966  0.2284265819510291
  0.6875176935222306  0.2273674751336568  0.7284262081078824
  0.6367034358446551  0.6987948587600086  0.3208578030273505
  0.8366059290663155  0.6987949567712121  0.8208574012397956
