Hf O 
 1.0000000000000000
     5.1582347133313204    0.0000023075034107    0.0000011458686593
     0.0000021425818609    5.1396663100082041   -0.0000051776636794
     0.0000016404529035   -0.0000052353370205    5.1448672276927025
 Hf  O  
   4   8
Direct
 -0.0131543164273172 -0.0068786103607187  0.0131214656395217
  0.0160251894717878  0.5082786013097287  0.5131195643433555
  0.5160259489590603 -0.0068759589891811  0.5131198945287029
  0.4868461423132725  0.5082811336026986  0.0131209224076370
  0.1807409824665955  0.3067287070622376  0.1900906279237967
  0.3221421549235660  0.3067320051549711  0.6900892661934747
  0.2191858453493784  0.7975677716669825  0.2921335316039760
  0.2836933433177407  0.7975698382966189  0.7921343461094732
  0.6807429845809868  0.1946812191414475  0.1900920330430739
  0.8221402002024486  0.1946779778339016  0.6900905103272861
  0.7191859078460772  0.7038408118272979  0.2921350233237478
  0.7836932983352715  0.7038387906469168  0.7921360462310844
