Hf O 
 1.0000000000000000
     5.2290030469755173   -0.0000011399351002    0.0000228678271340
    -0.0000010666975212    5.0646419327679908   -0.0000043258257637
     0.0000225330296015   -0.0000043646341200    5.0948766852893081
 Hf  O  
   4   8
Direct
  0.0139661329742172  0.0072220347256712 -0.0145087779887621
 -0.0488869692926727  0.4757071733500189  0.4854925063274801
  0.4511130379997800  0.0072222806051617  0.4854911700538760
  0.5139652912424064  0.4757065684823388 -0.0145074416228752
  0.2442105530385482  0.2792598682795381  0.2351317467790588
  0.2208712035412007  0.2792590290608946  0.7351315462535155
  0.1255474729972554  0.8058072464943513  0.3358441928875499
  0.3395385781716405  0.8058061077408725  0.8358432490092875
  0.7442107123332689  0.2036688123013178  0.2351322660465215
  0.7208709936113904  0.2036693954498643  0.7351322833346911
  0.6255471215213688  0.6771207303901116  0.3358466678351349
  0.8395388664826230  0.6771213491053404  0.8358459303985911
