Hf O 
 1.0000000000000000
     5.2290030469756044   -0.0000011399349508    0.0000228678268318
    -0.0000010666973794    5.0646419327675831   -0.0000043258255630
     0.0000225330293133   -0.0000043646339182    5.0948766852892993
 Hf  O  
   4   8
Direct
 -0.0139661329741409 -0.0072220347252206  0.0145087779886628
  0.0488869692924523  0.5242928266501314  0.5145074936726973
  0.5488869620003910 -0.0072222806049708  0.5145088299459941
  0.4860347087573584  0.5242934315174068  0.0145074416227304
  0.1604611335175540  0.3228786508944948  0.1641540696016412
  0.3744528784783710  0.3228792696097844  0.6641533321644347
  0.2791290063888225  0.7963306045499702  0.2648677166652589
  0.2557892876664220  0.7963311876984434  0.7648677339532450
  0.6604614218283259  0.1941938922592243  0.1641567509914001
  0.8744525270028818  0.1941927535053372  0.6641558071123584
  0.7791287964589212  0.7207409709389444  0.2648684537465196
  0.7557894469615676  0.7207401317204045  0.7648682532208604
