Hf O 
 1.0000000000000000
     5.1825349914640322   -0.0000016860610274   -0.0000016548449452
    -0.0000015700392032    5.1014287947819659   -0.0000043022898693
    -0.0000008847669599   -0.0000043466019792    5.1195528850341665
 Hf  O  
   4   8
Direct
  0.0203542932485818  0.0107191473563544 -0.0205517633119719
 -0.0320774801324633  0.4835556201950160  0.4794499367688845
  0.4679221710447022  0.0107175704157356  0.4794489960184328
  0.5203537351730159  0.4835544697959466 -0.0205507867089703
  0.2351592084988155  0.2880941279013078  0.2205023024522436
  0.2531099694797891  0.2880917662117681  0.7205032700379025
  0.1541165131137132  0.8068218796796943  0.3190140193843037
  0.3341535144839994  0.8068195166732565  0.8190134586771203
  0.7351593746481778  0.2061685203724943  0.2205024207308853
  0.7531098643193606  0.2061704972368934  0.7205036746077884
  0.6541153999347281  0.6874404450302627  0.3190159180681202
  0.8341545199237956  0.6874425959709000  0.8190152423589370
