Hf O 
 1.0000000000000000
     5.1582347133313169    0.0000023075033676    0.0000011458686549
     0.0000021425818213    5.1396663100080326   -0.0000051776636744
     0.0000016404529001   -0.0000052353370155    5.1448672276926741
 Hf  O  
   4   8
Direct
  0.0131543164273682  0.0068786103607122 -0.0131214656397266
 -0.0160251894716152  0.4917213986903040  0.4868804356563836
  0.4839740510409064  0.0068759589892196  0.4868801054712477
  0.5131538576867331  0.4917188663975587 -0.0131209224075395
  0.2163067016648452  0.2961612093527948  0.2078639537691500
  0.2808140921540831  0.2961591881725382  0.7078649766764135
  0.1778597997975012  0.8053220221658479  0.3099094896725164
  0.3192570154189194  0.8053187808585953  0.8099079669569214
  0.7163066566821880  0.2024301617034502  0.2078656538904602
  0.7808141546505535  0.2024322283329862  0.7078664683961645
  0.6778578450767535  0.6932679948450423  0.3099107338067740
  0.8192590175334704  0.6932712929377588  0.8099093720761428
