Hf O 
 1.0000000000000000
     5.1825349914639158   -0.0000016860610025   -0.0000016548454061
    -0.0000015700391795    5.1014287947821444   -0.0000043022902124
    -0.0000008847673935   -0.0000043466023250    5.1195528850343601
 Hf  O  
   4   8
Direct
 -0.0203542932486876 -0.0107191473568138  0.0205517633120705
  0.0320774801324130  0.5164443798054507  0.5205500632315087
  0.5320778289551773 -0.0107175704164184  0.5205510039813639
  0.4796462648269871  0.5164455302043321  0.0205507867089698
  0.1658454800759519  0.3125574040292794  0.1809847576410984
  0.3458846000651849  0.3125595549696618  0.6809840819318802
  0.2468901356805789  0.7938295027633856  0.2794963253923997
  0.2648406253519046  0.7938314796274103  0.7794975792691500
  0.6658464855156840  0.1931804833267190  0.1809865413230218
  0.8458834868862096  0.1931781203200405  0.6809859806154428
  0.7468900305197711  0.7119082337877927  0.2794967299625064
  0.7648407915010912  0.7119058720990910  0.7794976975475550
