Hf O 
 1.0000000000000000
     5.1518525324639537   -0.0000000646823130    0.0000049637020665
    -0.0000000594667039    5.1568119236625112   -0.0000019896544341
     0.0000051946532500   -0.0000020118393918    5.1563588386039214
 Hf  O  
   4   8
Direct
 -0.0000000000000000 -0.0000000000000001  0.0000000000000001
  0.0000000000000005  0.5000000000000043  0.4999999999999962
  0.4999999999999994 -0.0000000000000001  0.4999999999999962
  0.5000000000000008  0.5000000000000024  0.0000000000000001
  0.1974019701899056  0.3025395552504604  0.1975447571307652
  0.3025966717971806  0.3025393504599792  0.6975451279561015
  0.1974034271077424  0.8025392041667491  0.3024542550755188
  0.3025979154913674  0.8025393610906008  0.8024546143455261
  0.6974020845086354  0.1974606389094073  0.1975453856544667
  0.8025965728922618  0.1974607958332586  0.6975457449244737
  0.6974033282028239  0.6974606495400305  0.3024548720438907
  0.8025980298100969  0.6974604447495485  0.8024552428692273
