 vasp.6.3.2 27Jun22 (build Sep 18 2026 15:57:57) complex                        
  
 executed on             LinuxIFC date 2026.10.01  17:48:56
 running on   32 total cores
 distrk:  each k-point on   32 cores,    1 groups
 distr:  one band on NCORE=   1 cores,   32 groups


--------------------------------------------------------------------------------------------------------


 INCAR:
   ENCUT = 600.000000
   SIGMA = 0.050000
   EDIFF = 1.00e-07
   SYMPREC = 1.00e-04
   GGA = PE
   PREC = Accurate
   IBRION = -1
   ISIF = 2
   ISMEAR = 0
   ISYM = -1
   NSW = 0
   LCHARG = .FALSE.
   LWAVE = .FALSE.

 POTCAR:    PAW_PBE Ga_d 06Jul2010                
 POTCAR:    PAW_PBE N 08Apr2002                   
 -----------------------------------------------------------------------------
|                                                                             |
|           W    W    AA    RRRRR   N    N  II  N    N   GGGG   !!!           |
|           W    W   A  A   R    R  NN   N  II  NN   N  G    G  !!!           |
|           W    W  A    A  R    R  N N  N  II  N N  N  G       !!!           |
|           W WW W  AAAAAA  RRRRR   N  N N  II  N  N N  G  GGG   !            |
|           WW  WW  A    A  R   R   N   NN  II  N   NN  G    G                |
|           W    W  A    A  R    R  N    N  II  N    N   GGGG   !!!           |
|                                                                             |
|     For optimal performance we recommend to set                             |
|       NCORE = 2 up to number-of-cores-per-socket                            |
|     NCORE specifies how many cores store one orbital (NPAR=cpu/NCORE).      |
|     This setting can greatly improve the performance of VASP for DFT.       |
|     The default, NCORE=1 might be grossly inefficient on modern             |
|     multi-core architectures or massively parallel machines. Do your        |
|     own testing! More info at https://www.vasp.at/wiki/index.php/NCORE      |
|     Unfortunately you need to use the default for GW and RPA                |
|     calculations (for HF NCORE is supported but not extensively tested      |
|     yet).                                                                   |
|                                                                             |
 -----------------------------------------------------------------------------

 POTCAR:    PAW_PBE Ga_d 06Jul2010                
   VRHFIN =Ga: s2p1                                                                                 
   LEXCH  = PE                                                                                      
   EATOM  =  2148.8298 eV,  157.9345 Ry                                                             
                                                                                                    
   TITEL  = PAW_PBE Ga_d 06Jul2010                                                                  
   LULTRA =        F    use ultrasoft PP ?                                                          
   IUNSCR =        1    unscreen: 0-lin 1-nonlin 2-no                                               
   RPACOR =    1.700    partial core radius                                                         
   POMASS =   69.723; ZVAL   =   13.000    mass and valenz                                          
   RCORE  =    2.300    outmost cutoff radius                                                       
   RWIGS  =    2.300; RWIGS  =    1.217    wigner-seitz radius (au A)                               
   ENMAX  =  282.691; ENMIN  =  212.018 eV                                                          
   ICORE  =        3    local potential                                                             
   LCOR   =        T    correct aug charges                                                         
   LPAW   =        T    paw PP                                                                      
   EAUG   =  490.690                                                                                
   DEXC   =    0.000                                                                                
   RMAX   =    2.341    core radius for proj-oper                                                   
   RAUG   =    1.300    factor for augmentation sphere                                              
   RDEP   =    2.413    radius for radial grids                                                     
   RDEPT  =    1.856    core radius for aug-charge                                                  
                                                                                                    
   Atomic configuration                                                                             
    9 entries                                                                                       
     n  l   j            E        occ.                                                              
     1  0  0.50    -10228.7831   2.0000                                                             
     2  0  0.50     -1262.1604   2.0000                                                             
     2  1  1.50     -1098.6333   6.0000                                                             
     3  0  0.50      -148.1110   2.0000                                                             
     3  1  1.50       -98.8436   6.0000                                                             
     3  2  2.50       -19.1549  10.0000                                                             
     4  0  0.50        -8.9483   2.0000                                                             
     4  1  0.50        -2.5791   1.0000                                                             
     4  3  2.50        -2.7416   0.0000                                                             
   Description                                                                                      
     l       E           TYP  RCUT    TYP  RCUT                                                     
     2    -19.1549037     23  2.300                                                                 
     2     -5.4423304     23  2.300                                                                 
     0     -8.9483111     23  2.300                                                                 
     0     68.0291300     23  2.300                                                                 
     1     -2.5790802     23  2.100                                                                 
     1     81.6349560     23  2.300                                                                 
     3      6.8029130     23  2.300                                                                 
  local pseudopotential read in
  partial core-charges read in
  partial kinetic energy density read in
  atomic valenz-charges read in
  non local Contribution for L=           2  read in
    real space projection operators read in
  non local Contribution for L=           2  read in
    real space projection operators read in
  non local Contribution for L=           0  read in
    real space projection operators read in
  non local Contribution for L=           0  read in
    real space projection operators read in
  non local Contribution for L=           1  read in
    real space projection operators read in
  non local Contribution for L=           1  read in
    real space projection operators read in
    PAW grid and wavefunctions read in
 
   number of l-projection  operators is LMAX  =           6
   number of lm-projection operators is LMMAX =          18
 
 POTCAR:    PAW_PBE N 08Apr2002                   
   VRHFIN =N: s2p3                                                                                  
   LEXCH  = PE                                                                                      
   EATOM  =   264.5486 eV,   19.4438 Ry                                                             
                                                                                                    
   TITEL  = PAW_PBE N 08Apr2002                                                                     
   LULTRA =        F    use ultrasoft PP ?                                                          
   IUNSCR =        1    unscreen: 0-lin 1-nonlin 2-no                                               
   RPACOR =    1.200    partial core radius                                                         
   POMASS =   14.001; ZVAL   =    5.000    mass and valenz                                          
   RCORE  =    1.500    outmost cutoff radius                                                       
   RWIGS  =    1.400; RWIGS  =    0.741    wigner-seitz radius (au A)                               
   ENMAX  =  400.000; ENMIN  =  300.000 eV                                                          
   ICORE  =        2    local potential                                                             
   LCOR   =        T    correct aug charges                                                         
   LPAW   =        T    paw PP                                                                      
   EAUG   =  627.112                                                                                
   DEXC   =    0.000                                                                                
   RMAX   =    1.529    core radius for proj-oper                                                   
   RAUG   =    1.300    factor for augmentation sphere                                              
   RDEP   =    1.514    radius for radial grids                                                     
   RDEPT  =    1.338    core radius for aug-charge                                                  
                                                                                                    
   Atomic configuration                                                                             
    4 entries                                                                                       
     n  l   j            E        occ.                                                              
     1  0  0.50      -384.7179   2.0000                                                             
     2  0  0.50       -18.5828   2.0000                                                             
     2  1  0.50        -7.0898   3.0000                                                             
     3  2  1.50        -6.8029   0.0000                                                             
   Description                                                                                      
     l       E           TYP  RCUT    TYP  RCUT                                                     
     0    -18.5828119     23  1.200                                                                 
     0    -13.5018863     23  1.200                                                                 
     1     -7.0897853     23  1.500                                                                 
     1      9.5240782     23  1.500                                                                 
     2     -6.8029130      7  1.500                                                                 
  local pseudopotential read in
  partial core-charges read in
  partial kinetic energy density read in
  atomic valenz-charges read in
  non local Contribution for L=           0  read in
    real space projection operators read in
  non local Contribution for L=           0  read in
    real space projection operators read in
  non local Contribution for L=           1  read in
    real space projection operators read in
  non local Contribution for L=           1  read in
    real space projection operators read in
    PAW grid and wavefunctions read in
 
   number of l-projection  operators is LMAX  =           4
   number of lm-projection operators is LMMAX =           8
 
  PAW_PBE Ga_d 06Jul2010                :
 energy of atom  1       EATOM=-2148.8298
 kinetic energy error for atom=    0.0018 (will be added to EATOM!!)
  PAW_PBE N 08Apr2002                   :
 energy of atom  2       EATOM= -264.5486
 kinetic energy error for atom=    0.0103 (will be added to EATOM!!)
 
 
 POSCAR: Ga N
  positions in direct lattice
  No initial velocities read in
 exchange correlation table for  LEXCH =        8
   RHO(1)=    0.500       N(1)  =     2000
   RHO(2)=  100.500       N(2)  =     4000
 


--------------------------------------------------------------------------------------------------------


 ion  position               nearest neighbor table
   1  0.655  0.345  0.522-   3 1.88   4 1.88   4 1.88   4 1.94
   2  0.253  0.747  0.022-   4 1.88   3 1.88   3 1.88   3 1.94
   3  0.686  0.314  0.921-   1 1.88   2 1.88   2 1.88   2 1.94
   4  0.222  0.778  0.421-   2 1.88   1 1.88   1 1.88   1 1.94
 

IMPORTANT INFORMATION: All symmetrisations will be switched off!
NOSYMM: (Re-)initialisation of all symmetry stuff for point group C_1.


----------------------------------------------------------------------------------------

                                     Primitive cell                                     

  volume of cell :      36.7159

  direct lattice vectors                    reciprocal lattice vectors
     1.797939366 -2.177668905 -0.000011675     0.278096141 -0.229603315  0.000001078
     1.797939367  2.177668906  0.000011686     0.278096141  0.229603315 -0.000001079
     0.000000012  0.000022020  4.688757833    -0.000000001 -0.000001144  0.213276103

  length of vectors
     2.823973765  2.823973766  4.688757833     0.360631593  0.360631593  0.213276103

  position of ions in fractional coordinates (direct lattice)
     0.654511761  0.345488587  0.521891659
     0.253475793  0.746524559  0.021893695
     0.686252555  0.313747791  0.921404879
     0.221725240  0.778275110  0.421404467

  ion indices of the primitive-cell ions
   primitive index   ion index
                 1           1
                 2           2
                 3           3
                 4           4

----------------------------------------------------------------------------------------

 
 
 KPOINTS: KPOINTS created by Atomic Simulation Env

Automatic generation of k-mesh.
 Grid dimensions read from file:
 generate k-points for:    8    8    6

 Generating k-lattice:

  Cartesian coordinates                     Fractional coordinates (reciprocal lattice)
     0.034762018 -0.028700414  0.000000135     0.125000000  0.000000000  0.000000000
     0.034762018  0.028700414 -0.000000135     0.000000000  0.125000000 -0.000000000
    -0.000000000 -0.000000191  0.035546017     0.000000000  0.000000000  0.166666667

  Length of vectors
     0.045078949  0.045078949  0.035546017

  Shift w.r.t. Gamma in fractional coordinates (k-lattice)
     0.000000000  0.000000000  0.000000000

 
 Subroutine IBZKPT returns following result:
 ===========================================
 
 Found    384 irreducible k-points:
 
 Following reciprocal coordinates:
            Coordinates               Weight
  0.000000  0.000000  0.000000      1.000000
  0.125000 -0.000000  0.000000      1.000000
  0.250000 -0.000000  0.000000      1.000000
  0.375000 -0.000000 -0.000000      1.000000
  0.500000 -0.000000 -0.000000      1.000000
 -0.375000  0.000000  0.000000      1.000000
 -0.250000  0.000000 -0.000000      1.000000
 -0.125000  0.000000  0.000000      1.000000
 -0.000000  0.125000  0.000000      1.000000
  0.125000  0.125000  0.000000      1.000000
  0.250000  0.125000 -0.000000      1.000000
  0.375000  0.125000 -0.000000      1.000000
  0.500000  0.125000 -0.000000      1.000000
 -0.375000  0.125000 -0.000000      1.000000
 -0.250000  0.125000  0.000000      1.000000
 -0.125000  0.125000  0.000000      1.000000
 -0.000000  0.250000  0.000000      1.000000
  0.125000  0.250000 -0.000000      1.000000
  0.250000  0.250000 -0.000000      1.000000
  0.375000  0.250000 -0.000000      1.000000
  0.500000  0.250000  0.000000      1.000000
 -0.375000  0.250000  0.000000      1.000000
 -0.250000  0.250000  0.000000      1.000000
 -0.125000  0.250000 -0.000000      1.000000
 -0.000000  0.375000 -0.000000      1.000000
  0.125000  0.375000 -0.000000      1.000000
  0.250000  0.375000 -0.000000      1.000000
  0.375000  0.375000  0.000000      1.000000
  0.500000  0.375000  0.000000      1.000000
 -0.375000  0.375000  0.000000      1.000000
 -0.250000  0.375000 -0.000000      1.000000
 -0.125000  0.375000  0.000000      1.000000
 -0.000000  0.500000 -0.000000      1.000000
  0.125000  0.500000 -0.000000      1.000000
  0.250000  0.500000  0.000000      1.000000
  0.375000  0.500000  0.000000      1.000000
  0.500000  0.500000  0.000000      1.000000
 -0.375000  0.500000 -0.000000      1.000000
 -0.250000  0.500000  0.000000      1.000000
 -0.125000  0.500000 -0.000000      1.000000
  0.000000 -0.375000  0.000000      1.000000
  0.125000 -0.375000 -0.000000      1.000000
  0.250000 -0.375000  0.000000      1.000000
  0.375000 -0.375000  0.000000      1.000000
  0.500000 -0.375000 -0.000000      1.000000
 -0.375000 -0.375000 -0.000000      1.000000
 -0.250000 -0.375000  0.000000      1.000000
 -0.125000 -0.375000  0.000000      1.000000
  0.000000 -0.250000 -0.000000      1.000000
  0.125000 -0.250000  0.000000      1.000000
  0.250000 -0.250000  0.000000      1.000000
  0.375000 -0.250000 -0.000000      1.000000
  0.500000 -0.250000  0.000000      1.000000
 -0.375000 -0.250000  0.000000      1.000000
 -0.250000 -0.250000  0.000000      1.000000
 -0.125000 -0.250000  0.000000      1.000000
  0.000000 -0.125000  0.000000      1.000000
  0.125000 -0.125000  0.000000      1.000000
  0.250000 -0.125000 -0.000000      1.000000
  0.375000 -0.125000  0.000000      1.000000
  0.500000 -0.125000 -0.000000      1.000000
 -0.375000 -0.125000  0.000000      1.000000
 -0.250000 -0.125000  0.000000      1.000000
 -0.125000 -0.125000  0.000000      1.000000
 -0.000000 -0.000000  0.166667      1.000000
  0.125000 -0.000000  0.166667      1.000000
  0.250000  0.000000  0.166667      1.000000
  0.375000 -0.000000  0.166667      1.000000
  0.500000 -0.000000  0.166667      1.000000
 -0.375000  0.000000  0.166667      1.000000
 -0.250000  0.000000  0.166667      1.000000
 -0.125000 -0.000000  0.166667      1.000000
  0.000000  0.125000  0.166667      1.000000
  0.125000  0.125000  0.166667      1.000000
  0.250000  0.125000  0.166667      1.000000
  0.375000  0.125000  0.166667      1.000000
  0.500000  0.125000  0.166667      1.000000
 -0.375000  0.125000  0.166667      1.000000
 -0.250000  0.125000  0.166667      1.000000
 -0.125000  0.125000  0.166667      1.000000
  0.000000  0.250000  0.166667      1.000000
  0.125000  0.250000  0.166667      1.000000
  0.250000  0.250000  0.166667      1.000000
  0.375000  0.250000  0.166667      1.000000
  0.500000  0.250000  0.166667      1.000000
 -0.375000  0.250000  0.166667      1.000000
 -0.250000  0.250000  0.166667      1.000000
 -0.125000  0.250000  0.166667      1.000000
  0.000000  0.375000  0.166667      1.000000
  0.125000  0.375000  0.166667      1.000000
  0.250000  0.375000  0.166667      1.000000
  0.375000  0.375000  0.166667      1.000000
  0.500000  0.375000  0.166667      1.000000
 -0.375000  0.375000  0.166667      1.000000
 -0.250000  0.375000  0.166667      1.000000
 -0.125000  0.375000  0.166667      1.000000
 -0.000000  0.500000  0.166667      1.000000
  0.125000  0.500000  0.166667      1.000000
  0.250000  0.500000  0.166667      1.000000
  0.375000  0.500000  0.166667      1.000000
  0.500000  0.500000  0.166667      1.000000
 -0.375000  0.500000  0.166667      1.000000
 -0.250000  0.500000  0.166667      1.000000
 -0.125000  0.500000  0.166667      1.000000
  0.000000 -0.375000  0.166667      1.000000
  0.125000 -0.375000  0.166667      1.000000
  0.250000 -0.375000  0.166667      1.000000
  0.375000 -0.375000  0.166667      1.000000
  0.500000 -0.375000  0.166667      1.000000
 -0.375000 -0.375000  0.166667      1.000000
 -0.250000 -0.375000  0.166667      1.000000
 -0.125000 -0.375000  0.166667      1.000000
 -0.000000 -0.250000  0.166667      1.000000
  0.125000 -0.250000  0.166667      1.000000
  0.250000 -0.250000  0.166667      1.000000
  0.375000 -0.250000  0.166667      1.000000
  0.500000 -0.250000  0.166667      1.000000
 -0.375000 -0.250000  0.166667      1.000000
 -0.250000 -0.250000  0.166667      1.000000
 -0.125000 -0.250000  0.166667      1.000000
  0.000000 -0.125000  0.166667      1.000000
  0.125000 -0.125000  0.166667      1.000000
  0.250000 -0.125000  0.166667      1.000000
  0.375000 -0.125000  0.166667      1.000000
  0.500000 -0.125000  0.166667      1.000000
 -0.375000 -0.125000  0.166667      1.000000
 -0.250000 -0.125000  0.166667      1.000000
 -0.125000 -0.125000  0.166667      1.000000
 -0.000000 -0.000000  0.333333      1.000000
  0.125000 -0.000000  0.333333      1.000000
  0.250000 -0.000000  0.333333      1.000000
  0.375000  0.000000  0.333333      1.000000
  0.500000  0.000000  0.333333      1.000000
 -0.375000  0.000000  0.333333      1.000000
 -0.250000 -0.000000  0.333333      1.000000
 -0.125000 -0.000000  0.333333      1.000000
  0.000000  0.125000  0.333333      1.000000
  0.125000  0.125000  0.333333      1.000000
  0.250000  0.125000  0.333333      1.000000
  0.375000  0.125000  0.333333      1.000000
  0.500000  0.125000  0.333333      1.000000
 -0.375000  0.125000  0.333333      1.000000
 -0.250000  0.125000  0.333333      1.000000
 -0.125000  0.125000  0.333333      1.000000
  0.000000  0.250000  0.333333      1.000000
  0.125000  0.250000  0.333333      1.000000
  0.250000  0.250000  0.333333      1.000000
  0.375000  0.250000  0.333333      1.000000
  0.500000  0.250000  0.333333      1.000000
 -0.375000  0.250000  0.333333      1.000000
 -0.250000  0.250000  0.333333      1.000000
 -0.125000  0.250000  0.333333      1.000000
 -0.000000  0.375000  0.333333      1.000000
  0.125000  0.375000  0.333333      1.000000
  0.250000  0.375000  0.333333      1.000000
  0.375000  0.375000  0.333333      1.000000
  0.500000  0.375000  0.333333      1.000000
 -0.375000  0.375000  0.333333      1.000000
 -0.250000  0.375000  0.333333      1.000000
 -0.125000  0.375000  0.333333      1.000000
  0.000000  0.500000  0.333333      1.000000
  0.125000  0.500000  0.333333      1.000000
  0.250000  0.500000  0.333333      1.000000
  0.375000  0.500000  0.333333      1.000000
  0.500000  0.500000  0.333333      1.000000
 -0.375000  0.500000  0.333333      1.000000
 -0.250000  0.500000  0.333333      1.000000
 -0.125000  0.500000  0.333333      1.000000
 -0.000000 -0.375000  0.333333      1.000000
  0.125000 -0.375000  0.333333      1.000000
  0.250000 -0.375000  0.333333      1.000000
  0.375000 -0.375000  0.333333      1.000000
  0.500000 -0.375000  0.333333      1.000000
 -0.375000 -0.375000  0.333333      1.000000
 -0.250000 -0.375000  0.333333      1.000000
 -0.125000 -0.375000  0.333333      1.000000
  0.000000 -0.250000  0.333333      1.000000
  0.125000 -0.250000  0.333333      1.000000
  0.250000 -0.250000  0.333333      1.000000
  0.375000 -0.250000  0.333333      1.000000
  0.500000 -0.250000  0.333333      1.000000
 -0.375000 -0.250000  0.333333      1.000000
 -0.250000 -0.250000  0.333333      1.000000
 -0.125000 -0.250000  0.333333      1.000000
  0.000000 -0.125000  0.333333      1.000000
  0.125000 -0.125000  0.333333      1.000000
  0.250000 -0.125000  0.333333      1.000000
  0.375000 -0.125000  0.333333      1.000000
  0.500000 -0.125000  0.333333      1.000000
 -0.375000 -0.125000  0.333333      1.000000
 -0.250000 -0.125000  0.333333      1.000000
 -0.125000 -0.125000  0.333333      1.000000
 -0.000000  0.000000  0.500000      1.000000
  0.125000  0.000000  0.500000      1.000000
  0.250000 -0.000000  0.500000      1.000000
  0.375000 -0.000000  0.500000      1.000000
  0.500000 -0.000000  0.500000      1.000000
 -0.375000 -0.000000  0.500000      1.000000
 -0.250000  0.000000  0.500000      1.000000
 -0.125000 -0.000000  0.500000      1.000000
 -0.000000  0.125000  0.500000      1.000000
  0.125000  0.125000  0.500000      1.000000
  0.250000  0.125000  0.500000      1.000000
  0.375000  0.125000  0.500000      1.000000
  0.500000  0.125000  0.500000      1.000000
 -0.375000  0.125000  0.500000      1.000000
 -0.250000  0.125000  0.500000      1.000000
 -0.125000  0.125000  0.500000      1.000000
 -0.000000  0.250000  0.500000      1.000000
  0.125000  0.250000  0.500000      1.000000
  0.250000  0.250000  0.500000      1.000000
  0.375000  0.250000  0.500000      1.000000
  0.500000  0.250000  0.500000      1.000000
 -0.375000  0.250000  0.500000      1.000000
 -0.250000  0.250000  0.500000      1.000000
 -0.125000  0.250000  0.500000      1.000000
 -0.000000  0.375000  0.500000      1.000000
  0.125000  0.375000  0.500000      1.000000
  0.250000  0.375000  0.500000      1.000000
  0.375000  0.375000  0.500000      1.000000
  0.500000  0.375000  0.500000      1.000000
 -0.375000  0.375000  0.500000      1.000000
 -0.250000  0.375000  0.500000      1.000000
 -0.125000  0.375000  0.500000      1.000000
 -0.000000  0.500000  0.500000      1.000000
  0.125000  0.500000  0.500000      1.000000
  0.250000  0.500000  0.500000      1.000000
  0.375000  0.500000  0.500000      1.000000
  0.500000  0.500000  0.500000      1.000000
 -0.375000  0.500000  0.500000      1.000000
 -0.250000  0.500000  0.500000      1.000000
 -0.125000  0.500000  0.500000      1.000000
  0.000000 -0.375000  0.500000      1.000000
  0.125000 -0.375000  0.500000      1.000000
  0.250000 -0.375000  0.500000      1.000000
  0.375000 -0.375000  0.500000      1.000000
  0.500000 -0.375000  0.500000      1.000000
 -0.375000 -0.375000  0.500000      1.000000
 -0.250000 -0.375000  0.500000      1.000000
 -0.125000 -0.375000  0.500000      1.000000
 -0.000000 -0.250000  0.500000      1.000000
  0.125000 -0.250000  0.500000      1.000000
  0.250000 -0.250000  0.500000      1.000000
  0.375000 -0.250000  0.500000      1.000000
  0.500000 -0.250000  0.500000      1.000000
 -0.375000 -0.250000  0.500000      1.000000
 -0.250000 -0.250000  0.500000      1.000000
 -0.125000 -0.250000  0.500000      1.000000
 -0.000000 -0.125000  0.500000      1.000000
  0.125000 -0.125000  0.500000      1.000000
  0.250000 -0.125000  0.500000      1.000000
  0.375000 -0.125000  0.500000      1.000000
  0.500000 -0.125000  0.500000      1.000000
 -0.375000 -0.125000  0.500000      1.000000
 -0.250000 -0.125000  0.500000      1.000000
 -0.125000 -0.125000  0.500000      1.000000
  0.000000 -0.000000 -0.333333      1.000000
  0.125000  0.000000 -0.333333      1.000000
  0.250000  0.000000 -0.333333      1.000000
  0.375000 -0.000000 -0.333333      1.000000
  0.500000 -0.000000 -0.333333      1.000000
 -0.375000 -0.000000 -0.333333      1.000000
 -0.250000  0.000000 -0.333333      1.000000
 -0.125000  0.000000 -0.333333      1.000000
 -0.000000  0.125000 -0.333333      1.000000
  0.125000  0.125000 -0.333333      1.000000
  0.250000  0.125000 -0.333333      1.000000
  0.375000  0.125000 -0.333333      1.000000
  0.500000  0.125000 -0.333333      1.000000
 -0.375000  0.125000 -0.333333      1.000000
 -0.250000  0.125000 -0.333333      1.000000
 -0.125000  0.125000 -0.333333      1.000000
 -0.000000  0.250000 -0.333333      1.000000
  0.125000  0.250000 -0.333333      1.000000
  0.250000  0.250000 -0.333333      1.000000
  0.375000  0.250000 -0.333333      1.000000
  0.500000  0.250000 -0.333333      1.000000
 -0.375000  0.250000 -0.333333      1.000000
 -0.250000  0.250000 -0.333333      1.000000
 -0.125000  0.250000 -0.333333      1.000000
  0.000000  0.375000 -0.333333      1.000000
  0.125000  0.375000 -0.333333      1.000000
  0.250000  0.375000 -0.333333      1.000000
  0.375000  0.375000 -0.333333      1.000000
  0.500000  0.375000 -0.333333      1.000000
 -0.375000  0.375000 -0.333333      1.000000
 -0.250000  0.375000 -0.333333      1.000000
 -0.125000  0.375000 -0.333333      1.000000
  0.000000  0.500000 -0.333333      1.000000
  0.125000  0.500000 -0.333333      1.000000
  0.250000  0.500000 -0.333333      1.000000
  0.375000  0.500000 -0.333333      1.000000
  0.500000  0.500000 -0.333333      1.000000
 -0.375000  0.500000 -0.333333      1.000000
 -0.250000  0.500000 -0.333333      1.000000
 -0.125000  0.500000 -0.333333      1.000000
  0.000000 -0.375000 -0.333333      1.000000
  0.125000 -0.375000 -0.333333      1.000000
  0.250000 -0.375000 -0.333333      1.000000
  0.375000 -0.375000 -0.333333      1.000000
  0.500000 -0.375000 -0.333333      1.000000
 -0.375000 -0.375000 -0.333333      1.000000
 -0.250000 -0.375000 -0.333333      1.000000
 -0.125000 -0.375000 -0.333333      1.000000
 -0.000000 -0.250000 -0.333333      1.000000
  0.125000 -0.250000 -0.333333      1.000000
  0.250000 -0.250000 -0.333333      1.000000
  0.375000 -0.250000 -0.333333      1.000000
  0.500000 -0.250000 -0.333333      1.000000
 -0.375000 -0.250000 -0.333333      1.000000
 -0.250000 -0.250000 -0.333333      1.000000
 -0.125000 -0.250000 -0.333333      1.000000
 -0.000000 -0.125000 -0.333333      1.000000
  0.125000 -0.125000 -0.333333      1.000000
  0.250000 -0.125000 -0.333333      1.000000
  0.375000 -0.125000 -0.333333      1.000000
  0.500000 -0.125000 -0.333333      1.000000
 -0.375000 -0.125000 -0.333333      1.000000
 -0.250000 -0.125000 -0.333333      1.000000
 -0.125000 -0.125000 -0.333333      1.000000
  0.000000 -0.000000 -0.166667      1.000000
  0.125000  0.000000 -0.166667      1.000000
  0.250000 -0.000000 -0.166667      1.000000
  0.375000 -0.000000 -0.166667      1.000000
  0.500000  0.000000 -0.166667      1.000000
 -0.375000  0.000000 -0.166667      1.000000
 -0.250000 -0.000000 -0.166667      1.000000
 -0.125000  0.000000 -0.166667      1.000000
 -0.000000  0.125000 -0.166667      1.000000
  0.125000  0.125000 -0.166667      1.000000
  0.250000  0.125000 -0.166667      1.000000
  0.375000  0.125000 -0.166667      1.000000
  0.500000  0.125000 -0.166667      1.000000
 -0.375000  0.125000 -0.166667      1.000000
 -0.250000  0.125000 -0.166667      1.000000
 -0.125000  0.125000 -0.166667      1.000000
  0.000000  0.250000 -0.166667      1.000000
  0.125000  0.250000 -0.166667      1.000000
  0.250000  0.250000 -0.166667      1.000000
  0.375000  0.250000 -0.166667      1.000000
  0.500000  0.250000 -0.166667      1.000000
 -0.375000  0.250000 -0.166667      1.000000
 -0.250000  0.250000 -0.166667      1.000000
 -0.125000  0.250000 -0.166667      1.000000
 -0.000000  0.375000 -0.166667      1.000000
  0.125000  0.375000 -0.166667      1.000000
  0.250000  0.375000 -0.166667      1.000000
  0.375000  0.375000 -0.166667      1.000000
  0.500000  0.375000 -0.166667      1.000000
 -0.375000  0.375000 -0.166667      1.000000
 -0.250000  0.375000 -0.166667      1.000000
 -0.125000  0.375000 -0.166667      1.000000
  0.000000  0.500000 -0.166667      1.000000
  0.125000  0.500000 -0.166667      1.000000
  0.250000  0.500000 -0.166667      1.000000
  0.375000  0.500000 -0.166667      1.000000
  0.500000  0.500000 -0.166667      1.000000
 -0.375000  0.500000 -0.166667      1.000000
 -0.250000  0.500000 -0.166667      1.000000
 -0.125000  0.500000 -0.166667      1.000000
 -0.000000 -0.375000 -0.166667      1.000000
  0.125000 -0.375000 -0.166667      1.000000
  0.250000 -0.375000 -0.166667      1.000000
  0.375000 -0.375000 -0.166667      1.000000
  0.500000 -0.375000 -0.166667      1.000000
 -0.375000 -0.375000 -0.166667      1.000000
 -0.250000 -0.375000 -0.166667      1.000000
 -0.125000 -0.375000 -0.166667      1.000000
 -0.000000 -0.250000 -0.166667      1.000000
  0.125000 -0.250000 -0.166667      1.000000
  0.250000 -0.250000 -0.166667      1.000000
  0.375000 -0.250000 -0.166667      1.000000
  0.500000 -0.250000 -0.166667      1.000000
 -0.375000 -0.250000 -0.166667      1.000000
 -0.250000 -0.250000 -0.166667      1.000000
 -0.125000 -0.250000 -0.166667      1.000000
 -0.000000 -0.125000 -0.166667      1.000000
  0.125000 -0.125000 -0.166667      1.000000
  0.250000 -0.125000 -0.166667      1.000000
  0.375000 -0.125000 -0.166667      1.000000
  0.500000 -0.125000 -0.166667      1.000000
 -0.375000 -0.125000 -0.166667      1.000000
 -0.250000 -0.125000 -0.166667      1.000000
 -0.125000 -0.125000 -0.166667      1.000000
 
 Following cartesian coordinates:
            Coordinates               Weight
  0.000000  0.000000  0.000000      1.000000
  0.034762 -0.028700  0.000000      1.000000
  0.069524 -0.057401  0.000000      1.000000
  0.104286 -0.086101  0.000000      1.000000
  0.139048 -0.114802  0.000001      1.000000
 -0.104286  0.086101 -0.000000      1.000000
 -0.069524  0.057401 -0.000000      1.000000
 -0.034762  0.028700 -0.000000      1.000000
  0.034762  0.028700 -0.000000      1.000000
  0.069524 -0.000000 -0.000000      1.000000
  0.104286 -0.028700  0.000000      1.000000
  0.139048 -0.057401  0.000000      1.000000
  0.173810 -0.086101  0.000000      1.000000
 -0.069524  0.114802 -0.000001      1.000000
 -0.034762  0.086101 -0.000000      1.000000
 -0.000000  0.057401 -0.000000      1.000000
  0.069524  0.057401 -0.000000      1.000000
  0.104286  0.028700 -0.000000      1.000000
  0.139048 -0.000000 -0.000000      1.000000
  0.173810 -0.028700  0.000000      1.000000
  0.208572 -0.057401  0.000000      1.000000
 -0.034762  0.143502 -0.000001      1.000000
 -0.000000  0.114802 -0.000001      1.000000
  0.034762  0.086101 -0.000000      1.000000
  0.104286  0.086101 -0.000000      1.000000
  0.139048  0.057401 -0.000000      1.000000
  0.173810  0.028700 -0.000000      1.000000
  0.208572 -0.000000 -0.000000      1.000000
  0.243334 -0.028700  0.000000      1.000000
 -0.000000  0.172202 -0.000001      1.000000
  0.034762  0.143502 -0.000001      1.000000
  0.069524  0.114802 -0.000001      1.000000
  0.139048  0.114802 -0.000001      1.000000
  0.173810  0.086101 -0.000000      1.000000
  0.208572  0.057401 -0.000000      1.000000
  0.243334  0.028700 -0.000000      1.000000
  0.278096 -0.000000 -0.000000      1.000000
  0.034762  0.200903 -0.000001      1.000000
  0.069524  0.172202 -0.000001      1.000000
  0.104286  0.143502 -0.000001      1.000000
 -0.104286 -0.086101  0.000000      1.000000
 -0.069524 -0.114802  0.000001      1.000000
 -0.034762 -0.143502  0.000001      1.000000
  0.000000 -0.172202  0.000001      1.000000
  0.034762 -0.200903  0.000001      1.000000
 -0.208572  0.000000  0.000000      1.000000
 -0.173810 -0.028700  0.000000      1.000000
 -0.139048 -0.057401  0.000000      1.000000
 -0.069524 -0.057401  0.000000      1.000000
 -0.034762 -0.086101  0.000000      1.000000
  0.000000 -0.114802  0.000001      1.000000
  0.034762 -0.143502  0.000001      1.000000
  0.069524 -0.172202  0.000001      1.000000
 -0.173810  0.028700 -0.000000      1.000000
 -0.139048  0.000000  0.000000      1.000000
 -0.104286 -0.028700  0.000000      1.000000
 -0.034762 -0.028700  0.000000      1.000000
  0.000000 -0.057401  0.000000      1.000000
  0.034762 -0.086101  0.000000      1.000000
  0.069524 -0.114802  0.000001      1.000000
  0.104286 -0.143502  0.000001      1.000000
 -0.139048  0.057401 -0.000000      1.000000
 -0.104286  0.028700 -0.000000      1.000000
 -0.069524  0.000000  0.000000      1.000000
 -0.000000 -0.000000  0.035546      1.000000
  0.034762 -0.028701  0.035546      1.000000
  0.069524 -0.057401  0.035546      1.000000
  0.104286 -0.086101  0.035546      1.000000
  0.139048 -0.114802  0.035547      1.000000
 -0.104286  0.086101  0.035546      1.000000
 -0.069524  0.057401  0.035546      1.000000
 -0.034762  0.028700  0.035546      1.000000
  0.034762  0.028700  0.035546      1.000000
  0.069524 -0.000000  0.035546      1.000000
  0.104286 -0.028701  0.035546      1.000000
  0.139048 -0.057401  0.035546      1.000000
  0.173810 -0.086101  0.035546      1.000000
 -0.069524  0.114801  0.035545      1.000000
 -0.034762  0.086101  0.035546      1.000000
 -0.000000  0.057401  0.035546      1.000000
  0.069524  0.057401  0.035546      1.000000
  0.104286  0.028700  0.035546      1.000000
  0.139048 -0.000000  0.035546      1.000000
  0.173810 -0.028701  0.035546      1.000000
  0.208572 -0.057401  0.035546      1.000000
 -0.034762  0.143502  0.035545      1.000000
 -0.000000  0.114801  0.035545      1.000000
  0.034762  0.086101  0.035546      1.000000
  0.104286  0.086101  0.035546      1.000000
  0.139048  0.057401  0.035546      1.000000
  0.173810  0.028700  0.035546      1.000000
  0.208572 -0.000000  0.035546      1.000000
  0.243334 -0.028701  0.035546      1.000000
 -0.000000  0.172202  0.035545      1.000000
  0.034762  0.143502  0.035545      1.000000
  0.069524  0.114801  0.035545      1.000000
  0.139048  0.114801  0.035545      1.000000
  0.173810  0.086101  0.035546      1.000000
  0.208572  0.057401  0.035546      1.000000
  0.243334  0.028700  0.035546      1.000000
  0.278096 -0.000000  0.035546      1.000000
  0.034762  0.200903  0.035545      1.000000
  0.069524  0.172202  0.035545      1.000000
  0.104286  0.143502  0.035545      1.000000
 -0.104286 -0.086101  0.035546      1.000000
 -0.069524 -0.114802  0.035547      1.000000
 -0.034762 -0.143502  0.035547      1.000000
 -0.000000 -0.172203  0.035547      1.000000
  0.034762 -0.200903  0.035547      1.000000
 -0.208572 -0.000000  0.035546      1.000000
 -0.173810 -0.028701  0.035546      1.000000
 -0.139048 -0.057401  0.035546      1.000000
 -0.069524 -0.057401  0.035546      1.000000
 -0.034762 -0.086101  0.035546      1.000000
 -0.000000 -0.114802  0.035547      1.000000
  0.034762 -0.143502  0.035547      1.000000
  0.069524 -0.172203  0.035547      1.000000
 -0.173810  0.028700  0.035546      1.000000
 -0.139048 -0.000000  0.035546      1.000000
 -0.104286 -0.028701  0.035546      1.000000
 -0.034762 -0.028701  0.035546      1.000000
 -0.000000 -0.057401  0.035546      1.000000
  0.034762 -0.086101  0.035546      1.000000
  0.069524 -0.114802  0.035547      1.000000
  0.104286 -0.143502  0.035547      1.000000
 -0.139048  0.057401  0.035546      1.000000
 -0.104286  0.028700  0.035546      1.000000
 -0.069524 -0.000000  0.035546      1.000000
 -0.000000 -0.000000  0.071092      1.000000
  0.034762 -0.028701  0.071092      1.000000
  0.069524 -0.057401  0.071092      1.000000
  0.104286 -0.086102  0.071092      1.000000
  0.139048 -0.114802  0.071093      1.000000
 -0.104286  0.086101  0.071092      1.000000
 -0.069524  0.057400  0.071092      1.000000
 -0.034762  0.028700  0.071092      1.000000
  0.034762  0.028700  0.071092      1.000000
  0.069524 -0.000000  0.071092      1.000000
  0.104286 -0.028701  0.071092      1.000000
  0.139048 -0.057401  0.071092      1.000000
  0.173810 -0.086102  0.071092      1.000000
 -0.069524  0.114801  0.071091      1.000000
 -0.034762  0.086101  0.071092      1.000000
 -0.000000  0.057400  0.071092      1.000000
  0.069524  0.057400  0.071092      1.000000
  0.104286  0.028700  0.071092      1.000000
  0.139048 -0.000000  0.071092      1.000000
  0.173810 -0.028701  0.071092      1.000000
  0.208572 -0.057401  0.071092      1.000000
 -0.034762  0.143502  0.071091      1.000000
 -0.000000  0.114801  0.071091      1.000000
  0.034762  0.086101  0.071092      1.000000
  0.104286  0.086101  0.071092      1.000000
  0.139048  0.057400  0.071092      1.000000
  0.173810  0.028700  0.071092      1.000000
  0.208572 -0.000000  0.071092      1.000000
  0.243334 -0.028701  0.071092      1.000000
 -0.000000  0.172202  0.071091      1.000000
  0.034762  0.143502  0.071091      1.000000
  0.069524  0.114801  0.071091      1.000000
  0.139048  0.114801  0.071091      1.000000
  0.173810  0.086101  0.071092      1.000000
  0.208572  0.057400  0.071092      1.000000
  0.243334  0.028700  0.071092      1.000000
  0.278096 -0.000000  0.071092      1.000000
  0.034762  0.200903  0.071091      1.000000
  0.069524  0.172202  0.071091      1.000000
  0.104286  0.143502  0.071091      1.000000
 -0.104286 -0.086102  0.071092      1.000000
 -0.069524 -0.114802  0.071093      1.000000
 -0.034762 -0.143502  0.071093      1.000000
 -0.000000 -0.172203  0.071093      1.000000
  0.034762 -0.200903  0.071093      1.000000
 -0.208572 -0.000000  0.071092      1.000000
 -0.173810 -0.028701  0.071092      1.000000
 -0.139048 -0.057401  0.071092      1.000000
 -0.069524 -0.057401  0.071092      1.000000
 -0.034762 -0.086102  0.071092      1.000000
 -0.000000 -0.114802  0.071093      1.000000
  0.034762 -0.143502  0.071093      1.000000
  0.069524 -0.172203  0.071093      1.000000
 -0.173810  0.028700  0.071092      1.000000
 -0.139048 -0.000000  0.071092      1.000000
 -0.104286 -0.028701  0.071092      1.000000
 -0.034762 -0.028701  0.071092      1.000000
 -0.000000 -0.057401  0.071092      1.000000
  0.034762 -0.086102  0.071092      1.000000
  0.069524 -0.114802  0.071093      1.000000
  0.104286 -0.143502  0.071093      1.000000
 -0.139048  0.057400  0.071092      1.000000
 -0.104286  0.028700  0.071092      1.000000
 -0.069524 -0.000000  0.071092      1.000000
 -0.000000 -0.000001  0.106638      1.000000
  0.034762 -0.028701  0.106638      1.000000
  0.069524 -0.057401  0.106638      1.000000
  0.104286 -0.086102  0.106638      1.000000
  0.139048 -0.114802  0.106639      1.000000
 -0.104286  0.086101  0.106638      1.000000
 -0.069524  0.057400  0.106638      1.000000
 -0.034762  0.028700  0.106638      1.000000
  0.034762  0.028700  0.106638      1.000000
  0.069524 -0.000001  0.106638      1.000000
  0.104286 -0.028701  0.106638      1.000000
  0.139048 -0.057401  0.106638      1.000000
  0.173810 -0.086102  0.106638      1.000000
 -0.069524  0.114801  0.106638      1.000000
 -0.034762  0.086101  0.106638      1.000000
 -0.000000  0.057400  0.106638      1.000000
  0.069524  0.057400  0.106638      1.000000
  0.104286  0.028700  0.106638      1.000000
  0.139048 -0.000001  0.106638      1.000000
  0.173810 -0.028701  0.106638      1.000000
  0.208572 -0.057401  0.106638      1.000000
 -0.034762  0.143502  0.106637      1.000000
 -0.000000  0.114801  0.106638      1.000000
  0.034762  0.086101  0.106638      1.000000
  0.104286  0.086101  0.106638      1.000000
  0.139048  0.057400  0.106638      1.000000
  0.173810  0.028700  0.106638      1.000000
  0.208572 -0.000001  0.106638      1.000000
  0.243334 -0.028701  0.106638      1.000000
 -0.000000  0.172202  0.106637      1.000000
  0.034762  0.143501  0.106637      1.000000
  0.069524  0.114801  0.106638      1.000000
  0.139048  0.114801  0.106638      1.000000
  0.173810  0.086101  0.106638      1.000000
  0.208572  0.057400  0.106638      1.000000
  0.243334  0.028700  0.106638      1.000000
  0.278096 -0.000001  0.106638      1.000000
  0.034762  0.200902  0.106637      1.000000
  0.069524  0.172202  0.106637      1.000000
  0.104286  0.143501  0.106637      1.000000
 -0.104286 -0.086102  0.106638      1.000000
 -0.069524 -0.114802  0.106639      1.000000
 -0.034762 -0.143503  0.106639      1.000000
 -0.000000 -0.172203  0.106639      1.000000
  0.034762 -0.200903  0.106639      1.000000
 -0.208572 -0.000001  0.106638      1.000000
 -0.173810 -0.028701  0.106638      1.000000
 -0.139048 -0.057401  0.106638      1.000000
 -0.069524 -0.057401  0.106638      1.000000
 -0.034762 -0.086102  0.106638      1.000000
 -0.000000 -0.114802  0.106639      1.000000
  0.034762 -0.143503  0.106639      1.000000
  0.069524 -0.172203  0.106639      1.000000
 -0.173810  0.028700  0.106638      1.000000
 -0.139048 -0.000001  0.106638      1.000000
 -0.104286 -0.028701  0.106638      1.000000
 -0.034762 -0.028701  0.106638      1.000000
 -0.000000 -0.057401  0.106638      1.000000
  0.034762 -0.086102  0.106638      1.000000
  0.069524 -0.114802  0.106639      1.000000
  0.104286 -0.143503  0.106639      1.000000
 -0.139048  0.057400  0.106638      1.000000
 -0.104286  0.028700  0.106638      1.000000
 -0.069524 -0.000001  0.106638      1.000000
  0.000000  0.000000 -0.071092      1.000000
  0.034762 -0.028700 -0.071092      1.000000
  0.069524 -0.057400 -0.071092      1.000000
  0.104286 -0.086101 -0.071092      1.000000
  0.139048 -0.114801 -0.071091      1.000000
 -0.104286  0.086102 -0.071092      1.000000
 -0.069524  0.057401 -0.071092      1.000000
 -0.034762  0.028701 -0.071092      1.000000
  0.034762  0.028701 -0.071092      1.000000
  0.069524  0.000000 -0.071092      1.000000
  0.104286 -0.028700 -0.071092      1.000000
  0.139048 -0.057400 -0.071092      1.000000
  0.173810 -0.086101 -0.071092      1.000000
 -0.069524  0.114802 -0.071093      1.000000
 -0.034762  0.086102 -0.071092      1.000000
  0.000000  0.057401 -0.071092      1.000000
  0.069524  0.057401 -0.071092      1.000000
  0.104286  0.028701 -0.071092      1.000000
  0.139048  0.000000 -0.071092      1.000000
  0.173810 -0.028700 -0.071092      1.000000
  0.208572 -0.057400 -0.071092      1.000000
 -0.034762  0.143502 -0.071093      1.000000
  0.000000  0.114802 -0.071093      1.000000
  0.034762  0.086102 -0.071092      1.000000
  0.104286  0.086102 -0.071092      1.000000
  0.139048  0.057401 -0.071092      1.000000
  0.173810  0.028701 -0.071092      1.000000
  0.208572  0.000000 -0.071092      1.000000
  0.243334 -0.028700 -0.071092      1.000000
  0.000000  0.172203 -0.071093      1.000000
  0.034762  0.143502 -0.071093      1.000000
  0.069524  0.114802 -0.071093      1.000000
  0.139048  0.114802 -0.071093      1.000000
  0.173810  0.086102 -0.071092      1.000000
  0.208572  0.057401 -0.071092      1.000000
  0.243334  0.028701 -0.071092      1.000000
  0.278096  0.000000 -0.071092      1.000000
  0.034762  0.200903 -0.071093      1.000000
  0.069524  0.172203 -0.071093      1.000000
  0.104286  0.143502 -0.071093      1.000000
 -0.104286 -0.086101 -0.071092      1.000000
 -0.069524 -0.114801 -0.071091      1.000000
 -0.034762 -0.143502 -0.071091      1.000000
  0.000000 -0.172202 -0.071091      1.000000
  0.034762 -0.200903 -0.071091      1.000000
 -0.208572  0.000000 -0.071092      1.000000
 -0.173810 -0.028700 -0.071092      1.000000
 -0.139048 -0.057400 -0.071092      1.000000
 -0.069524 -0.057400 -0.071092      1.000000
 -0.034762 -0.086101 -0.071092      1.000000
  0.000000 -0.114801 -0.071091      1.000000
  0.034762 -0.143502 -0.071091      1.000000
  0.069524 -0.172202 -0.071091      1.000000
 -0.173810  0.028701 -0.071092      1.000000
 -0.139048  0.000000 -0.071092      1.000000
 -0.104286 -0.028700 -0.071092      1.000000
 -0.034762 -0.028700 -0.071092      1.000000
  0.000000 -0.057400 -0.071092      1.000000
  0.034762 -0.086101 -0.071092      1.000000
  0.069524 -0.114801 -0.071091      1.000000
  0.104286 -0.143502 -0.071091      1.000000
 -0.139048  0.057401 -0.071092      1.000000
 -0.104286  0.028701 -0.071092      1.000000
 -0.069524  0.000000 -0.071092      1.000000
  0.000000  0.000000 -0.035546      1.000000
  0.034762 -0.028700 -0.035546      1.000000
  0.069524 -0.057401 -0.035546      1.000000
  0.104286 -0.086101 -0.035546      1.000000
  0.139048 -0.114801 -0.035545      1.000000
 -0.104286  0.086101 -0.035546      1.000000
 -0.069524  0.057401 -0.035546      1.000000
 -0.034762  0.028701 -0.035546      1.000000
  0.034762  0.028701 -0.035546      1.000000
  0.069524  0.000000 -0.035546      1.000000
  0.104286 -0.028700 -0.035546      1.000000
  0.139048 -0.057401 -0.035546      1.000000
  0.173810 -0.086101 -0.035546      1.000000
 -0.069524  0.114802 -0.035547      1.000000
 -0.034762  0.086101 -0.035546      1.000000
  0.000000  0.057401 -0.035546      1.000000
  0.069524  0.057401 -0.035546      1.000000
  0.104286  0.028701 -0.035546      1.000000
  0.139048  0.000000 -0.035546      1.000000
  0.173810 -0.028700 -0.035546      1.000000
  0.208572 -0.057401 -0.035546      1.000000
 -0.034762  0.143502 -0.035547      1.000000
  0.000000  0.114802 -0.035547      1.000000
  0.034762  0.086101 -0.035546      1.000000
  0.104286  0.086101 -0.035546      1.000000
  0.139048  0.057401 -0.035546      1.000000
  0.173810  0.028701 -0.035546      1.000000
  0.208572  0.000000 -0.035546      1.000000
  0.243334 -0.028700 -0.035546      1.000000
  0.000000  0.172203 -0.035547      1.000000
  0.034762  0.143502 -0.035547      1.000000
  0.069524  0.114802 -0.035547      1.000000
  0.139048  0.114802 -0.035547      1.000000
  0.173810  0.086101 -0.035546      1.000000
  0.208572  0.057401 -0.035546      1.000000
  0.243334  0.028701 -0.035546      1.000000
  0.278096  0.000000 -0.035546      1.000000
  0.034762  0.200903 -0.035547      1.000000
  0.069524  0.172203 -0.035547      1.000000
  0.104286  0.143502 -0.035547      1.000000
 -0.104286 -0.086101 -0.035546      1.000000
 -0.069524 -0.114801 -0.035545      1.000000
 -0.034762 -0.143502 -0.035545      1.000000
  0.000000 -0.172202 -0.035545      1.000000
  0.034762 -0.200903 -0.035545      1.000000
 -0.208572  0.000000 -0.035546      1.000000
 -0.173810 -0.028700 -0.035546      1.000000
 -0.139048 -0.057401 -0.035546      1.000000
 -0.069524 -0.057401 -0.035546      1.000000
 -0.034762 -0.086101 -0.035546      1.000000
  0.000000 -0.114801 -0.035545      1.000000
  0.034762 -0.143502 -0.035545      1.000000
  0.069524 -0.172202 -0.035545      1.000000
 -0.173810  0.028701 -0.035546      1.000000
 -0.139048  0.000000 -0.035546      1.000000
 -0.104286 -0.028700 -0.035546      1.000000
 -0.034762 -0.028700 -0.035546      1.000000
  0.000000 -0.057401 -0.035546      1.000000
  0.034762 -0.086101 -0.035546      1.000000
  0.069524 -0.114801 -0.035545      1.000000
  0.104286 -0.143502 -0.035545      1.000000
 -0.139048  0.057401 -0.035546      1.000000
 -0.104286  0.028701 -0.035546      1.000000
 -0.069524  0.000000 -0.035546      1.000000
 


--------------------------------------------------------------------------------------------------------




 Dimension of arrays:
   k-points           NKPTS =    384   k-points in BZ     NKDIM =    384   number of bands    NBANDS=     32
   number of dos      NEDOS =    301   number of ions     NIONS =      4
   non local maximal  LDIM  =      6   non local SUM 2l+1 LMDIM =     18
   total plane-waves  NPLWV =  23040
   max r-space proj   IRMAX =      1   max aug-charges    IRDMAX=  23978
   dimension x,y,z NGX =    24 NGY =   24 NGZ =   40
   dimension x,y,z NGXF=    48 NGYF=   48 NGZF=   80
   support grid    NGXF=    48 NGYF=   48 NGZF=   80
   ions per type =               2   2
   NGX,Y,Z   is equivalent  to a cutoff of  14.13, 14.13, 14.18 a.u.
   NGXF,Y,Z  is equivalent  to a cutoff of  28.26, 28.26, 28.37 a.u.

 SYSTEM =  unknown system                          
 POSCAR =  Ga N                                    

 Startparameter for this run:
   NWRITE =      2    write-flag & timer
   PREC   = accura    normal or accurate (medium, high low for compatibility)
   ISTART =      0    job   : 0-new  1-cont  2-samecut
   ICHARG =      2    charge: 1-file 2-atom 10-const
   ISPIN  =      1    spin polarized calculation?
   LNONCOLLINEAR =      F non collinear calculations
   LSORBIT =      F    spin-orbit coupling
   INIWAV =      1    electr: 0-lowe 1-rand  2-diag
   LASPH  =      F    aspherical Exc in radial PAW
 Electronic Relaxation 1
   ENCUT  =  600.0 eV  44.10 Ry    6.64 a.u.   5.64  5.64  9.36*2*pi/ulx,y,z
   ENINI  =  600.0     initial cutoff
   ENAUG  =  627.1 eV  augmentation charge cutoff
   NELM   =     60;   NELMIN=  2; NELMDL= -5     # of ELM steps 
   EDIFF  = 0.1E-06   stopping-criterion for ELM
   LREAL  =      F    real-space projection
   NLSPLINE    = F    spline interpolate recip. space projectors
   LCOMPAT=      F    compatible to vasp.4.4
   GGA_COMPAT  = T    GGA compatible to vasp.4.4-vasp.4.6
   LMAXPAW     = -100 max onsite density
   LMAXMIX     =    2 max onsite mixed and CHGCAR
   VOSKOWN=      0    Vosko Wilk Nusair interpolation
   ROPT   =    0.00000   0.00000
 Ionic relaxation
   EDIFFG = 0.1E-05   stopping-criterion for IOM
   NSW    =      0    number of steps for IOM
   NBLOCK =      1;   KBLOCK =      1    inner block; outer block 
   IBRION =     -1    ionic relax: 0-MD 1-quasi-New 2-CG
   NFREE  =      0    steps in history (QN), initial steepest desc. (CG)
   ISIF   =      2    stress and relaxation
   IWAVPR =     10    prediction:  0-non 1-charg 2-wave 3-comb
   ISYM   =     -1    0-nonsym 1-usesym 2-fastsym
   LCORR  =      T    Harris-Foulkes like correction to forces

   POTIM  = 0.5000    time-step for ionic-motion
   TEIN   =    0.0    initial temperature
   TEBEG  =    0.0;   TEEND  =   0.0 temperature during run
   SMASS  =  -3.00    Nose mass-parameter (am)
   estimated Nose-frequenzy (Omega)   =  0.10E-29 period in steps = 0.13E+47 mass=  -0.182E-27a.u.
   SCALEE = 1.0000    scale energy and forces
   NPACO  =    256;   APACO  = 10.0  distance and # of slots for P.C.
   PSTRESS=    0.0 pullay stress

  Mass of Ions in am
   POMASS =  69.72 14.00
  Ionic Valenz
   ZVAL   =  13.00  5.00
  Atomic Wigner-Seitz radii
   RWIGS  =  -1.00 -1.00
  virtual crystal weights 
   VCA    =   1.00  1.00
   NELECT =      36.0000    total number of electrons
   NUPDOWN=      -1.0000    fix difference up-down

 DOS related values:
   EMIN   =  10.00;   EMAX   =-10.00  energy-range for DOS
   EFERMI =   0.00
   ISMEAR =     0;   SIGMA  =   0.05  broadening in eV -4-tet -1-fermi 0-gaus

 Electronic relaxation 2 (details)
   IALGO  =     38    algorithm
   LDIAG  =      T    sub-space diagonalisation (order eigenvalues)
   LSUBROT=      F    optimize rotation matrix (better conditioning)
   TURBO    =      0    0=normal 1=particle mesh
   IRESTART =      0    0=no restart 2=restart with 2 vectors
   NREBOOT  =      0    no. of reboots
   NMIN     =      0    reboot dimension
   EREF     =   0.00    reference energy to select bands
   IMIX   =      4    mixing-type and parameters
     AMIX     =   0.40;   BMIX     =  1.00
     AMIX_MAG =   1.60;   BMIX_MAG =  1.00
     AMIN     =   0.10
     WC   =   100.;   INIMIX=   1;  MIXPRE=   1;  MAXMIX= -45

 Intra band minimization:
   WEIMIN = 0.0000     energy-eigenvalue tresh-hold
   EBREAK =  0.78E-09  absolut break condition
   DEPER  =   0.30     relativ break condition  

   TIME   =   0.40     timestep for ELM

  volume/ion in A,a.u.               =       9.18        61.94
  Fermi-wavevector in a.u.,A,eV,Ry     =   1.626388  3.073427 35.989276  2.645137
  Thomas-Fermi vector in A             =   2.719355
 
 Write flags
   LWAVE        =      F    write WAVECAR
   LDOWNSAMPLE  =      F    k-point downsampling of WAVECAR
   LCHARG       =      F    write CHGCAR
   LVTOT        =      F    write LOCPOT, total local potential
   LVHAR        =      F    write LOCPOT, Hartree potential only
   LELF         =      F    write electronic localiz. function (ELF)
   LORBIT       =      0    0 simple, 1 ext, 2 COOP (PROOUT), +10 PAW based schemes


 Dipole corrections
   LMONO  =      F    monopole corrections only (constant potential shift)
   LDIPOL =      F    correct potential (dipole corrections)
   IDIPOL =      0    1-x, 2-y, 3-z, 4-all directions 
   EPSILON=  1.0000000 bulk dielectric constant

 Exchange correlation treatment:
   GGA     =    PE    GGA type
   LEXCH   =     8    internal setting for exchange type
   LIBXC   =     F    Libxc                    
   VOSKOWN =     0    Vosko Wilk Nusair interpolation
   LHFCALC =     F    Hartree Fock is set to
   LHFONE  =     F    Hartree Fock one center treatment
   AEXX    =    0.0000 exact exchange contribution

 Linear response parameters
   LEPSILON=     F    determine dielectric tensor
   LRPA    =     F    only Hartree local field effects (RPA)
   LNABLA  =     F    use nabla operator in PAW spheres
   LVEL    =     F    velocity operator in full k-point grid
   CSHIFT  =0.1000    complex shift for real part using Kramers Kronig
   OMEGAMAX=  -1.0    maximum frequency
   DEG_THRESHOLD= 0.2000000E-02 threshold for treating states as degnerate
   RTIME   =   -0.100 relaxation time in fs
  (WPLASMAI=    0.000 imaginary part of plasma frequency in eV, 0.658/RTIME)
   DFIELD  = 0.0000000 0.0000000 0.0000000 field for delta impulse in time
 
  Optional k-point grid parameters
   LKPOINTS_OPT  =     F    use optional k-point grid
   KPOINTS_OPT_MODE=     1    mode for optional k-point grid
 
 Orbital magnetization related:
   ORBITALMAG=     F  switch on orbital magnetization
   LCHIMAG   =     F  perturbation theory with respect to B field
   DQ        =  0.001000  dq finite difference perturbation B field
   LLRAUG    =     F  two centre corrections for induced B field



--------------------------------------------------------------------------------------------------------


 Static calculation
 charge density and potential will be updated during run
 non-spin polarized calculation
 Variant of blocked Davidson
 Davidson routine will perform the subspace rotation
 perform sub-space diagonalisation
    after iterative eigenvector-optimisation
 modified Broyden-mixing scheme, WC =      100.0
 initial mixing is a Kerker type mixing with AMIX =  0.4000 and BMIX =      1.0000
 Hartree-type preconditioning will be used
 using additional bands           14
 reciprocal scheme for non local part
 use partial core corrections
 calculate Harris-corrections to forces 
   (improved forces if not selfconsistent)
 use gradient corrections 
 use of overlap-Matrix (Vanderbilt PP)
 Gauss-broadening in eV      SIGMA  =   0.05


--------------------------------------------------------------------------------------------------------


  energy-cutoff  :      600.00
  volume of cell :       36.72
      direct lattice vectors                 reciprocal lattice vectors
     1.797939366 -2.177668905 -0.000011675     0.278096141 -0.229603315  0.000001078
     1.797939367  2.177668906  0.000011686     0.278096141  0.229603315 -0.000001079
     0.000000012  0.000022020  4.688757833    -0.000000001 -0.000001144  0.213276103

  length of vectors
     2.823973765  2.823973766  4.688757833     0.360631593  0.360631593  0.213276103


 
 k-points in units of 2pi/SCALE and weight: KPOINTS created by Atomic Simulation Env
   0.00000000  0.00000000  0.00000000       0.003
   0.03476202 -0.02870041  0.00000013       0.003
   0.06952404 -0.05740083  0.00000027       0.003
   0.10428605 -0.08610124  0.00000040       0.003
   0.13904807 -0.11480166  0.00000054       0.003
  -0.10428605  0.08610124 -0.00000040       0.003
  -0.06952404  0.05740083 -0.00000027       0.003
  -0.03476202  0.02870041 -0.00000013       0.003
   0.03476202  0.02870041 -0.00000013       0.003
   0.06952404 -0.00000000 -0.00000000       0.003
   0.10428605 -0.02870041  0.00000013       0.003
   0.13904807 -0.05740083  0.00000027       0.003
   0.17381009 -0.08610124  0.00000040       0.003
  -0.06952404  0.11480166 -0.00000054       0.003
  -0.03476202  0.08610124 -0.00000040       0.003
  -0.00000000  0.05740083 -0.00000027       0.003
   0.06952404  0.05740083 -0.00000027       0.003
   0.10428605  0.02870041 -0.00000014       0.003
   0.13904807 -0.00000000 -0.00000000       0.003
   0.17381009 -0.02870041  0.00000013       0.003
   0.20857211 -0.05740083  0.00000027       0.003
  -0.03476202  0.14350207 -0.00000067       0.003
  -0.00000000  0.11480166 -0.00000054       0.003
   0.03476202  0.08610124 -0.00000040       0.003
   0.10428605  0.08610124 -0.00000040       0.003
   0.13904807  0.05740083 -0.00000027       0.003
   0.17381009  0.02870041 -0.00000014       0.003
   0.20857211 -0.00000000 -0.00000000       0.003
   0.24333412 -0.02870041  0.00000013       0.003
  -0.00000000  0.17220249 -0.00000081       0.003
   0.03476202  0.14350207 -0.00000067       0.003
   0.06952404  0.11480166 -0.00000054       0.003
   0.13904807  0.11480166 -0.00000054       0.003
   0.17381009  0.08610124 -0.00000040       0.003
   0.20857211  0.05740083 -0.00000027       0.003
   0.24333412  0.02870041 -0.00000014       0.003
   0.27809614 -0.00000000 -0.00000000       0.003
   0.03476202  0.20090290 -0.00000094       0.003
   0.06952404  0.17220249 -0.00000081       0.003
   0.10428605  0.14350207 -0.00000067       0.003
  -0.10428605 -0.08610124  0.00000040       0.003
  -0.06952404 -0.11480166  0.00000054       0.003
  -0.03476202 -0.14350207  0.00000067       0.003
   0.00000000 -0.17220249  0.00000081       0.003
   0.03476202 -0.20090290  0.00000094       0.003
  -0.20857211  0.00000000  0.00000000       0.003
  -0.17381009 -0.02870041  0.00000014       0.003
  -0.13904807 -0.05740083  0.00000027       0.003
  -0.06952404 -0.05740083  0.00000027       0.003
  -0.03476202 -0.08610124  0.00000040       0.003
   0.00000000 -0.11480166  0.00000054       0.003
   0.03476202 -0.14350207  0.00000067       0.003
   0.06952404 -0.17220249  0.00000081       0.003
  -0.17381009  0.02870041 -0.00000013       0.003
  -0.13904807  0.00000000  0.00000000       0.003
  -0.10428605 -0.02870041  0.00000014       0.003
  -0.03476202 -0.02870041  0.00000013       0.003
   0.00000000 -0.05740083  0.00000027       0.003
   0.03476202 -0.08610124  0.00000040       0.003
   0.06952404 -0.11480166  0.00000054       0.003
   0.10428605 -0.14350207  0.00000067       0.003
  -0.13904807  0.05740083 -0.00000027       0.003
  -0.10428605  0.02870041 -0.00000013       0.003
  -0.06952404  0.00000000  0.00000000       0.003
  -0.00000000 -0.00000019  0.03554602       0.003
   0.03476202 -0.02870061  0.03554615       0.003
   0.06952404 -0.05740102  0.03554629       0.003
   0.10428605 -0.08610143  0.03554642       0.003
   0.13904807 -0.11480185  0.03554656       0.003
  -0.10428605  0.08610105  0.03554561       0.003
  -0.06952404  0.05740064  0.03554575       0.003
  -0.03476202  0.02870022  0.03554588       0.003
   0.03476202  0.02870022  0.03554588       0.003
   0.06952404 -0.00000019  0.03554602       0.003
   0.10428605 -0.02870061  0.03554615       0.003
   0.13904807 -0.05740102  0.03554629       0.003
   0.17381009 -0.08610143  0.03554642       0.003
  -0.06952404  0.11480147  0.03554548       0.003
  -0.03476202  0.08610105  0.03554561       0.003
  -0.00000000  0.05740064  0.03554575       0.003
   0.06952404  0.05740064  0.03554575       0.003
   0.10428605  0.02870022  0.03554588       0.003
   0.13904807 -0.00000019  0.03554602       0.003
   0.17381009 -0.02870061  0.03554615       0.003
   0.20857211 -0.05740102  0.03554629       0.003
  -0.03476202  0.14350188  0.03554534       0.003
  -0.00000000  0.11480147  0.03554548       0.003
   0.03476202  0.08610105  0.03554561       0.003
   0.10428605  0.08610105  0.03554561       0.003
   0.13904807  0.05740064  0.03554575       0.003
   0.17381009  0.02870022  0.03554588       0.003
   0.20857211 -0.00000019  0.03554602       0.003
   0.24333412 -0.02870061  0.03554615       0.003
  -0.00000000  0.17220230  0.03554521       0.003
   0.03476202  0.14350188  0.03554534       0.003
   0.06952404  0.11480147  0.03554548       0.003
   0.13904807  0.11480147  0.03554548       0.003
   0.17381009  0.08610105  0.03554561       0.003
   0.20857211  0.05740064  0.03554575       0.003
   0.24333412  0.02870022  0.03554588       0.003
   0.27809614 -0.00000019  0.03554602       0.003
   0.03476202  0.20090271  0.03554507       0.003
   0.06952404  0.17220230  0.03554521       0.003
   0.10428605  0.14350188  0.03554534       0.003
  -0.10428605 -0.08610143  0.03554642       0.003
  -0.06952404 -0.11480185  0.03554656       0.003
  -0.03476202 -0.14350226  0.03554669       0.003
  -0.00000000 -0.17220268  0.03554683       0.003
   0.03476202 -0.20090309  0.03554696       0.003
  -0.20857211 -0.00000019  0.03554602       0.003
  -0.17381009 -0.02870061  0.03554615       0.003
  -0.13904807 -0.05740102  0.03554629       0.003
  -0.06952404 -0.05740102  0.03554629       0.003
  -0.03476202 -0.08610143  0.03554642       0.003
  -0.00000000 -0.11480185  0.03554656       0.003
   0.03476202 -0.14350226  0.03554669       0.003
   0.06952404 -0.17220268  0.03554683       0.003
  -0.17381009  0.02870022  0.03554588       0.003
  -0.13904807 -0.00000019  0.03554602       0.003
  -0.10428605 -0.02870061  0.03554615       0.003
  -0.03476202 -0.02870061  0.03554615       0.003
  -0.00000000 -0.05740102  0.03554629       0.003
   0.03476202 -0.08610143  0.03554642       0.003
   0.06952404 -0.11480185  0.03554656       0.003
   0.10428605 -0.14350226  0.03554669       0.003
  -0.13904807  0.05740064  0.03554575       0.003
  -0.10428605  0.02870022  0.03554588       0.003
  -0.06952404 -0.00000019  0.03554602       0.003
  -0.00000000 -0.00000038  0.07109203       0.003
   0.03476202 -0.02870080  0.07109217       0.003
   0.06952404 -0.05740121  0.07109230       0.003
   0.10428605 -0.08610162  0.07109244       0.003
   0.13904807 -0.11480204  0.07109257       0.003
  -0.10428605  0.08610086  0.07109163       0.003
  -0.06952404  0.05740045  0.07109177       0.003
  -0.03476202  0.02870003  0.07109190       0.003
   0.03476202  0.02870003  0.07109190       0.003
   0.06952404 -0.00000038  0.07109203       0.003
   0.10428605 -0.02870080  0.07109217       0.003
   0.13904807 -0.05740121  0.07109230       0.003
   0.17381009 -0.08610162  0.07109244       0.003
  -0.06952404  0.11480128  0.07109150       0.003
  -0.03476202  0.08610086  0.07109163       0.003
  -0.00000000  0.05740045  0.07109176       0.003
   0.06952404  0.05740045  0.07109176       0.003
   0.10428605  0.02870003  0.07109190       0.003
   0.13904807 -0.00000038  0.07109203       0.003
   0.17381009 -0.02870080  0.07109217       0.003
   0.20857211 -0.05740121  0.07109230       0.003
  -0.03476202  0.14350169  0.07109136       0.003
  -0.00000000  0.11480128  0.07109150       0.003
   0.03476202  0.08610086  0.07109163       0.003
   0.10428605  0.08610086  0.07109163       0.003
   0.13904807  0.05740045  0.07109176       0.003
   0.17381009  0.02870003  0.07109190       0.003
   0.20857211 -0.00000038  0.07109203       0.003
   0.24333412 -0.02870080  0.07109217       0.003
  -0.00000000  0.17220211  0.07109123       0.003
   0.03476202  0.14350169  0.07109136       0.003
   0.06952404  0.11480128  0.07109150       0.003
   0.13904807  0.11480128  0.07109149       0.003
   0.17381009  0.08610086  0.07109163       0.003
   0.20857211  0.05740045  0.07109176       0.003
   0.24333412  0.02870003  0.07109190       0.003
   0.27809614 -0.00000038  0.07109203       0.003
   0.03476202  0.20090252  0.07109109       0.003
   0.06952404  0.17220211  0.07109123       0.003
   0.10428605  0.14350169  0.07109136       0.003
  -0.10428605 -0.08610162  0.07109244       0.003
  -0.06952404 -0.11480204  0.07109257       0.003
  -0.03476202 -0.14350245  0.07109271       0.003
  -0.00000000 -0.17220287  0.07109284       0.003
   0.03476202 -0.20090328  0.07109298       0.003
  -0.20857211 -0.00000038  0.07109203       0.003
  -0.17381009 -0.02870080  0.07109217       0.003
  -0.13904807 -0.05740121  0.07109230       0.003
  -0.06952404 -0.05740121  0.07109230       0.003
  -0.03476202 -0.08610162  0.07109244       0.003
  -0.00000000 -0.11480204  0.07109257       0.003
   0.03476202 -0.14350245  0.07109271       0.003
   0.06952404 -0.17220287  0.07109284       0.003
  -0.17381009  0.02870003  0.07109190       0.003
  -0.13904807 -0.00000038  0.07109203       0.003
  -0.10428605 -0.02870080  0.07109217       0.003
  -0.03476202 -0.02870080  0.07109217       0.003
  -0.00000000 -0.05740121  0.07109230       0.003
   0.03476202 -0.08610162  0.07109244       0.003
   0.06952404 -0.11480204  0.07109257       0.003
   0.10428605 -0.14350245  0.07109271       0.003
  -0.13904807  0.05740045  0.07109177       0.003
  -0.10428605  0.02870003  0.07109190       0.003
  -0.06952404 -0.00000038  0.07109203       0.003
  -0.00000000 -0.00000057  0.10663805       0.003
   0.03476202 -0.02870099  0.10663819       0.003
   0.06952403 -0.05740140  0.10663832       0.003
   0.10428605 -0.08610182  0.10663846       0.003
   0.13904807 -0.11480223  0.10663859       0.003
  -0.10428605  0.08610067  0.10663765       0.003
  -0.06952404  0.05740026  0.10663778       0.003
  -0.03476202  0.02869984  0.10663792       0.003
   0.03476202  0.02869984  0.10663792       0.003
   0.06952403 -0.00000057  0.10663805       0.003
   0.10428605 -0.02870099  0.10663819       0.003
   0.13904807 -0.05740140  0.10663832       0.003
   0.17381009 -0.08610182  0.10663846       0.003
  -0.06952404  0.11480109  0.10663751       0.003
  -0.03476202  0.08610067  0.10663765       0.003
  -0.00000000  0.05740026  0.10663778       0.003
   0.06952403  0.05740026  0.10663778       0.003
   0.10428605  0.02869984  0.10663792       0.003
   0.13904807 -0.00000057  0.10663805       0.003
   0.17381009 -0.02870099  0.10663819       0.003
   0.20857211 -0.05740140  0.10663832       0.003
  -0.03476202  0.14350150  0.10663738       0.003
  -0.00000000  0.11480109  0.10663751       0.003
   0.03476202  0.08610067  0.10663765       0.003
   0.10428605  0.08610067  0.10663765       0.003
   0.13904807  0.05740026  0.10663778       0.003
   0.17381009  0.02869984  0.10663792       0.003
   0.20857211 -0.00000057  0.10663805       0.003
   0.24333412 -0.02870099  0.10663819       0.003
  -0.00000000  0.17220191  0.10663724       0.003
   0.03476202  0.14350150  0.10663738       0.003
   0.06952403  0.11480109  0.10663751       0.003
   0.13904807  0.11480109  0.10663751       0.003
   0.17381009  0.08610067  0.10663765       0.003
   0.20857211  0.05740026  0.10663778       0.003
   0.24333412  0.02869984  0.10663792       0.003
   0.27809614 -0.00000057  0.10663805       0.003
   0.03476202  0.20090233  0.10663711       0.003
   0.06952403  0.17220191  0.10663724       0.003
   0.10428605  0.14350150  0.10663738       0.003
  -0.10428605 -0.08610182  0.10663846       0.003
  -0.06952404 -0.11480223  0.10663859       0.003
  -0.03476202 -0.14350264  0.10663873       0.003
  -0.00000000 -0.17220306  0.10663886       0.003
   0.03476202 -0.20090347  0.10663900       0.003
  -0.20857211 -0.00000057  0.10663805       0.003
  -0.17381009 -0.02870099  0.10663819       0.003
  -0.13904807 -0.05740140  0.10663832       0.003
  -0.06952404 -0.05740140  0.10663832       0.003
  -0.03476202 -0.08610182  0.10663846       0.003
  -0.00000000 -0.11480223  0.10663859       0.003
   0.03476202 -0.14350264  0.10663873       0.003
   0.06952404 -0.17220306  0.10663886       0.003
  -0.17381009  0.02869984  0.10663792       0.003
  -0.13904807 -0.00000057  0.10663805       0.003
  -0.10428605 -0.02870099  0.10663819       0.003
  -0.03476202 -0.02870099  0.10663819       0.003
  -0.00000000 -0.05740140  0.10663832       0.003
   0.03476202 -0.08610182  0.10663846       0.003
   0.06952404 -0.11480223  0.10663859       0.003
   0.10428605 -0.14350264  0.10663873       0.003
  -0.13904807  0.05740026  0.10663778       0.003
  -0.10428605  0.02869984  0.10663792       0.003
  -0.06952404 -0.00000057  0.10663805       0.003
   0.00000000  0.00000038 -0.07109203       0.003
   0.03476202 -0.02870003 -0.07109190       0.003
   0.06952404 -0.05740045 -0.07109177       0.003
   0.10428605 -0.08610086 -0.07109163       0.003
   0.13904807 -0.11480128 -0.07109150       0.003
  -0.10428605  0.08610162 -0.07109244       0.003
  -0.06952404  0.05740121 -0.07109230       0.003
  -0.03476202  0.02870080 -0.07109217       0.003
   0.03476202  0.02870080 -0.07109217       0.003
   0.06952404  0.00000038 -0.07109203       0.003
   0.10428605 -0.02870003 -0.07109190       0.003
   0.13904807 -0.05740045 -0.07109177       0.003
   0.17381009 -0.08610086 -0.07109163       0.003
  -0.06952404  0.11480204 -0.07109257       0.003
  -0.03476202  0.08610162 -0.07109244       0.003
   0.00000000  0.05740121 -0.07109230       0.003
   0.06952404  0.05740121 -0.07109230       0.003
   0.10428605  0.02870080 -0.07109217       0.003
   0.13904807  0.00000038 -0.07109203       0.003
   0.17381009 -0.02870003 -0.07109190       0.003
   0.20857211 -0.05740045 -0.07109177       0.003
  -0.03476202  0.14350245 -0.07109271       0.003
   0.00000000  0.11480204 -0.07109257       0.003
   0.03476202  0.08610162 -0.07109244       0.003
   0.10428605  0.08610162 -0.07109244       0.003
   0.13904807  0.05740121 -0.07109230       0.003
   0.17381009  0.02870080 -0.07109217       0.003
   0.20857211  0.00000038 -0.07109203       0.003
   0.24333412 -0.02870003 -0.07109190       0.003
   0.00000000  0.17220287 -0.07109284       0.003
   0.03476202  0.14350245 -0.07109271       0.003
   0.06952404  0.11480204 -0.07109257       0.003
   0.13904807  0.11480204 -0.07109257       0.003
   0.17381009  0.08610162 -0.07109244       0.003
   0.20857211  0.05740121 -0.07109230       0.003
   0.24333412  0.02870080 -0.07109217       0.003
   0.27809614  0.00000038 -0.07109204       0.003
   0.03476202  0.20090328 -0.07109298       0.003
   0.06952404  0.17220287 -0.07109284       0.003
   0.10428605  0.14350245 -0.07109271       0.003
  -0.10428605 -0.08610086 -0.07109163       0.003
  -0.06952404 -0.11480128 -0.07109150       0.003
  -0.03476202 -0.14350169 -0.07109136       0.003
   0.00000000 -0.17220211 -0.07109123       0.003
   0.03476202 -0.20090252 -0.07109109       0.003
  -0.20857211  0.00000038 -0.07109203       0.003
  -0.17381009 -0.02870003 -0.07109190       0.003
  -0.13904807 -0.05740045 -0.07109176       0.003
  -0.06952404 -0.05740045 -0.07109176       0.003
  -0.03476202 -0.08610086 -0.07109163       0.003
   0.00000000 -0.11480128 -0.07109150       0.003
   0.03476202 -0.14350169 -0.07109136       0.003
   0.06952404 -0.17220211 -0.07109123       0.003
  -0.17381009  0.02870080 -0.07109217       0.003
  -0.13904807  0.00000038 -0.07109203       0.003
  -0.10428605 -0.02870003 -0.07109190       0.003
  -0.03476202 -0.02870003 -0.07109190       0.003
   0.00000000 -0.05740045 -0.07109176       0.003
   0.03476202 -0.08610086 -0.07109163       0.003
   0.06952404 -0.11480128 -0.07109150       0.003
   0.10428605 -0.14350169 -0.07109136       0.003
  -0.13904807  0.05740121 -0.07109230       0.003
  -0.10428605  0.02870080 -0.07109217       0.003
  -0.06952404  0.00000038 -0.07109203       0.003
   0.00000000  0.00000019 -0.03554602       0.003
   0.03476202 -0.02870022 -0.03554588       0.003
   0.06952404 -0.05740064 -0.03554575       0.003
   0.10428605 -0.08610105 -0.03554561       0.003
   0.13904807 -0.11480147 -0.03554548       0.003
  -0.10428605  0.08610143 -0.03554642       0.003
  -0.06952404  0.05740102 -0.03554629       0.003
  -0.03476202  0.02870061 -0.03554615       0.003
   0.03476202  0.02870061 -0.03554615       0.003
   0.06952404  0.00000019 -0.03554602       0.003
   0.10428605 -0.02870022 -0.03554588       0.003
   0.13904807 -0.05740064 -0.03554575       0.003
   0.17381009 -0.08610105 -0.03554561       0.003
  -0.06952404  0.11480185 -0.03554656       0.003
  -0.03476202  0.08610143 -0.03554642       0.003
   0.00000000  0.05740102 -0.03554629       0.003
   0.06952404  0.05740102 -0.03554629       0.003
   0.10428605  0.02870061 -0.03554615       0.003
   0.13904807  0.00000019 -0.03554602       0.003
   0.17381009 -0.02870022 -0.03554588       0.003
   0.20857211 -0.05740064 -0.03554575       0.003
  -0.03476202  0.14350226 -0.03554669       0.003
   0.00000000  0.11480185 -0.03554656       0.003
   0.03476202  0.08610143 -0.03554642       0.003
   0.10428605  0.08610143 -0.03554642       0.003
   0.13904807  0.05740102 -0.03554629       0.003
   0.17381009  0.02870061 -0.03554615       0.003
   0.20857211  0.00000019 -0.03554602       0.003
   0.24333412 -0.02870022 -0.03554588       0.003
   0.00000000  0.17220268 -0.03554683       0.003
   0.03476202  0.14350226 -0.03554669       0.003
   0.06952404  0.11480185 -0.03554656       0.003
   0.13904807  0.11480185 -0.03554656       0.003
   0.17381009  0.08610143 -0.03554642       0.003
   0.20857211  0.05740102 -0.03554629       0.003
   0.24333412  0.02870061 -0.03554615       0.003
   0.27809614  0.00000019 -0.03554602       0.003
   0.03476202  0.20090309 -0.03554696       0.003
   0.06952404  0.17220268 -0.03554683       0.003
   0.10428605  0.14350226 -0.03554669       0.003
  -0.10428605 -0.08610105 -0.03554561       0.003
  -0.06952404 -0.11480147 -0.03554548       0.003
  -0.03476202 -0.14350188 -0.03554534       0.003
   0.00000000 -0.17220230 -0.03554521       0.003
   0.03476202 -0.20090271 -0.03554507       0.003
  -0.20857211  0.00000019 -0.03554602       0.003
  -0.17381009 -0.02870022 -0.03554588       0.003
  -0.13904807 -0.05740064 -0.03554575       0.003
  -0.06952404 -0.05740064 -0.03554575       0.003
  -0.03476202 -0.08610105 -0.03554561       0.003
   0.00000000 -0.11480147 -0.03554548       0.003
   0.03476202 -0.14350188 -0.03554534       0.003
   0.06952404 -0.17220230 -0.03554521       0.003
  -0.17381009  0.02870061 -0.03554615       0.003
  -0.13904807  0.00000019 -0.03554602       0.003
  -0.10428605 -0.02870022 -0.03554588       0.003
  -0.03476202 -0.02870022 -0.03554588       0.003
   0.00000000 -0.05740064 -0.03554575       0.003
   0.03476202 -0.08610105 -0.03554561       0.003
   0.06952404 -0.11480147 -0.03554548       0.003
   0.10428605 -0.14350188 -0.03554534       0.003
  -0.13904807  0.05740102 -0.03554629       0.003
  -0.10428605  0.02870061 -0.03554615       0.003
  -0.06952404  0.00000019 -0.03554602       0.003
 
 k-points in reciprocal lattice and weights: KPOINTS created by Atomic Simulation Env
   0.00000000  0.00000000  0.00000000       0.003
   0.12500000 -0.00000000  0.00000000       0.003
   0.25000000 -0.00000000  0.00000000       0.003
   0.37500000 -0.00000000 -0.00000000       0.003
   0.50000000 -0.00000000 -0.00000000       0.003
  -0.37500000  0.00000000  0.00000000       0.003
  -0.25000000  0.00000000 -0.00000000       0.003
  -0.12500000  0.00000000  0.00000000       0.003
  -0.00000000  0.12500000  0.00000000       0.003
   0.12500000  0.12500000  0.00000000       0.003
   0.25000000  0.12500000 -0.00000000       0.003
   0.37500000  0.12500000 -0.00000000       0.003
   0.50000000  0.12500000 -0.00000000       0.003
  -0.37500000  0.12500000 -0.00000000       0.003
  -0.25000000  0.12500000  0.00000000       0.003
  -0.12500000  0.12500000  0.00000000       0.003
  -0.00000000  0.25000000  0.00000000       0.003
   0.12500000  0.25000000 -0.00000000       0.003
   0.25000000  0.25000000 -0.00000000       0.003
   0.37500000  0.25000000 -0.00000000       0.003
   0.50000000  0.25000000  0.00000000       0.003
  -0.37500000  0.25000000  0.00000000       0.003
  -0.25000000  0.25000000  0.00000000       0.003
  -0.12500000  0.25000000 -0.00000000       0.003
  -0.00000000  0.37500000 -0.00000000       0.003
   0.12500000  0.37500000 -0.00000000       0.003
   0.25000000  0.37500000 -0.00000000       0.003
   0.37500000  0.37500000  0.00000000       0.003
   0.50000000  0.37500000  0.00000000       0.003
  -0.37500000  0.37500000  0.00000000       0.003
  -0.25000000  0.37500000 -0.00000000       0.003
  -0.12500000  0.37500000  0.00000000       0.003
  -0.00000000  0.50000000 -0.00000000       0.003
   0.12500000  0.50000000 -0.00000000       0.003
   0.25000000  0.50000000  0.00000000       0.003
   0.37500000  0.50000000  0.00000000       0.003
   0.50000000  0.50000000  0.00000000       0.003
  -0.37500000  0.50000000 -0.00000000       0.003
  -0.25000000  0.50000000  0.00000000       0.003
  -0.12500000  0.50000000 -0.00000000       0.003
   0.00000000 -0.37500000  0.00000000       0.003
   0.12500000 -0.37500000 -0.00000000       0.003
   0.25000000 -0.37500000  0.00000000       0.003
   0.37500000 -0.37500000  0.00000000       0.003
   0.50000000 -0.37500000 -0.00000000       0.003
  -0.37500000 -0.37500000 -0.00000000       0.003
  -0.25000000 -0.37500000  0.00000000       0.003
  -0.12500000 -0.37500000  0.00000000       0.003
   0.00000000 -0.25000000 -0.00000000       0.003
   0.12500000 -0.25000000  0.00000000       0.003
   0.25000000 -0.25000000  0.00000000       0.003
   0.37500000 -0.25000000 -0.00000000       0.003
   0.50000000 -0.25000000  0.00000000       0.003
  -0.37500000 -0.25000000  0.00000000       0.003
  -0.25000000 -0.25000000  0.00000000       0.003
  -0.12500000 -0.25000000  0.00000000       0.003
   0.00000000 -0.12500000  0.00000000       0.003
   0.12500000 -0.12500000  0.00000000       0.003
   0.25000000 -0.12500000 -0.00000000       0.003
   0.37500000 -0.12500000  0.00000000       0.003
   0.50000000 -0.12500000 -0.00000000       0.003
  -0.37500000 -0.12500000  0.00000000       0.003
  -0.25000000 -0.12500000  0.00000000       0.003
  -0.12500000 -0.12500000  0.00000000       0.003
  -0.00000000 -0.00000000  0.16666667       0.003
   0.12500000 -0.00000000  0.16666667       0.003
   0.25000000  0.00000000  0.16666667       0.003
   0.37500000 -0.00000000  0.16666667       0.003
   0.50000000 -0.00000000  0.16666667       0.003
  -0.37500000  0.00000000  0.16666667       0.003
  -0.25000000  0.00000000  0.16666667       0.003
  -0.12500000 -0.00000000  0.16666667       0.003
   0.00000000  0.12500000  0.16666667       0.003
   0.12500000  0.12500000  0.16666667       0.003
   0.25000000  0.12500000  0.16666667       0.003
   0.37500000  0.12500000  0.16666667       0.003
   0.50000000  0.12500000  0.16666667       0.003
  -0.37500000  0.12500000  0.16666667       0.003
  -0.25000000  0.12500000  0.16666667       0.003
  -0.12500000  0.12500000  0.16666667       0.003
   0.00000000  0.25000000  0.16666667       0.003
   0.12500000  0.25000000  0.16666667       0.003
   0.25000000  0.25000000  0.16666667       0.003
   0.37500000  0.25000000  0.16666667       0.003
   0.50000000  0.25000000  0.16666667       0.003
  -0.37500000  0.25000000  0.16666667       0.003
  -0.25000000  0.25000000  0.16666667       0.003
  -0.12500000  0.25000000  0.16666667       0.003
   0.00000000  0.37500000  0.16666667       0.003
   0.12500000  0.37500000  0.16666667       0.003
   0.25000000  0.37500000  0.16666667       0.003
   0.37500000  0.37500000  0.16666667       0.003
   0.50000000  0.37500000  0.16666667       0.003
  -0.37500000  0.37500000  0.16666667       0.003
  -0.25000000  0.37500000  0.16666667       0.003
  -0.12500000  0.37500000  0.16666667       0.003
  -0.00000000  0.50000000  0.16666667       0.003
   0.12500000  0.50000000  0.16666667       0.003
   0.25000000  0.50000000  0.16666667       0.003
   0.37500000  0.50000000  0.16666667       0.003
   0.50000000  0.50000000  0.16666667       0.003
  -0.37500000  0.50000000  0.16666667       0.003
  -0.25000000  0.50000000  0.16666667       0.003
  -0.12500000  0.50000000  0.16666667       0.003
   0.00000000 -0.37500000  0.16666667       0.003
   0.12500000 -0.37500000  0.16666667       0.003
   0.25000000 -0.37500000  0.16666667       0.003
   0.37500000 -0.37500000  0.16666667       0.003
   0.50000000 -0.37500000  0.16666667       0.003
  -0.37500000 -0.37500000  0.16666667       0.003
  -0.25000000 -0.37500000  0.16666667       0.003
  -0.12500000 -0.37500000  0.16666667       0.003
  -0.00000000 -0.25000000  0.16666667       0.003
   0.12500000 -0.25000000  0.16666667       0.003
   0.25000000 -0.25000000  0.16666667       0.003
   0.37500000 -0.25000000  0.16666667       0.003
   0.50000000 -0.25000000  0.16666667       0.003
  -0.37500000 -0.25000000  0.16666667       0.003
  -0.25000000 -0.25000000  0.16666667       0.003
  -0.12500000 -0.25000000  0.16666667       0.003
   0.00000000 -0.12500000  0.16666667       0.003
   0.12500000 -0.12500000  0.16666667       0.003
   0.25000000 -0.12500000  0.16666667       0.003
   0.37500000 -0.12500000  0.16666667       0.003
   0.50000000 -0.12500000  0.16666667       0.003
  -0.37500000 -0.12500000  0.16666667       0.003
  -0.25000000 -0.12500000  0.16666667       0.003
  -0.12500000 -0.12500000  0.16666667       0.003
  -0.00000000 -0.00000000  0.33333333       0.003
   0.12500000 -0.00000000  0.33333333       0.003
   0.25000000 -0.00000000  0.33333333       0.003
   0.37500000  0.00000000  0.33333333       0.003
   0.50000000  0.00000000  0.33333333       0.003
  -0.37500000  0.00000000  0.33333333       0.003
  -0.25000000 -0.00000000  0.33333333       0.003
  -0.12500000 -0.00000000  0.33333333       0.003
   0.00000000  0.12500000  0.33333333       0.003
   0.12500000  0.12500000  0.33333333       0.003
   0.25000000  0.12500000  0.33333333       0.003
   0.37500000  0.12500000  0.33333333       0.003
   0.50000000  0.12500000  0.33333333       0.003
  -0.37500000  0.12500000  0.33333333       0.003
  -0.25000000  0.12500000  0.33333333       0.003
  -0.12500000  0.12500000  0.33333333       0.003
   0.00000000  0.25000000  0.33333333       0.003
   0.12500000  0.25000000  0.33333333       0.003
   0.25000000  0.25000000  0.33333333       0.003
   0.37500000  0.25000000  0.33333333       0.003
   0.50000000  0.25000000  0.33333333       0.003
  -0.37500000  0.25000000  0.33333333       0.003
  -0.25000000  0.25000000  0.33333333       0.003
  -0.12500000  0.25000000  0.33333333       0.003
  -0.00000000  0.37500000  0.33333333       0.003
   0.12500000  0.37500000  0.33333333       0.003
   0.25000000  0.37500000  0.33333333       0.003
   0.37500000  0.37500000  0.33333333       0.003
   0.50000000  0.37500000  0.33333333       0.003
  -0.37500000  0.37500000  0.33333333       0.003
  -0.25000000  0.37500000  0.33333333       0.003
  -0.12500000  0.37500000  0.33333333       0.003
   0.00000000  0.50000000  0.33333333       0.003
   0.12500000  0.50000000  0.33333333       0.003
   0.25000000  0.50000000  0.33333333       0.003
   0.37500000  0.50000000  0.33333333       0.003
   0.50000000  0.50000000  0.33333333       0.003
  -0.37500000  0.50000000  0.33333333       0.003
  -0.25000000  0.50000000  0.33333333       0.003
  -0.12500000  0.50000000  0.33333333       0.003
  -0.00000000 -0.37500000  0.33333333       0.003
   0.12500000 -0.37500000  0.33333333       0.003
   0.25000000 -0.37500000  0.33333333       0.003
   0.37500000 -0.37500000  0.33333333       0.003
   0.50000000 -0.37500000  0.33333333       0.003
  -0.37500000 -0.37500000  0.33333333       0.003
  -0.25000000 -0.37500000  0.33333333       0.003
  -0.12500000 -0.37500000  0.33333333       0.003
   0.00000000 -0.25000000  0.33333333       0.003
   0.12500000 -0.25000000  0.33333333       0.003
   0.25000000 -0.25000000  0.33333333       0.003
   0.37500000 -0.25000000  0.33333333       0.003
   0.50000000 -0.25000000  0.33333333       0.003
  -0.37500000 -0.25000000  0.33333333       0.003
  -0.25000000 -0.25000000  0.33333333       0.003
  -0.12500000 -0.25000000  0.33333333       0.003
   0.00000000 -0.12500000  0.33333333       0.003
   0.12500000 -0.12500000  0.33333333       0.003
   0.25000000 -0.12500000  0.33333333       0.003
   0.37500000 -0.12500000  0.33333333       0.003
   0.50000000 -0.12500000  0.33333333       0.003
  -0.37500000 -0.12500000  0.33333333       0.003
  -0.25000000 -0.12500000  0.33333333       0.003
  -0.12500000 -0.12500000  0.33333333       0.003
  -0.00000000  0.00000000  0.50000000       0.003
   0.12500000  0.00000000  0.50000000       0.003
   0.25000000 -0.00000000  0.50000000       0.003
   0.37500000 -0.00000000  0.50000000       0.003
   0.50000000 -0.00000000  0.50000000       0.003
  -0.37500000 -0.00000000  0.50000000       0.003
  -0.25000000  0.00000000  0.50000000       0.003
  -0.12500000 -0.00000000  0.50000000       0.003
  -0.00000000  0.12500000  0.50000000       0.003
   0.12500000  0.12500000  0.50000000       0.003
   0.25000000  0.12500000  0.50000000       0.003
   0.37500000  0.12500000  0.50000000       0.003
   0.50000000  0.12500000  0.50000000       0.003
  -0.37500000  0.12500000  0.50000000       0.003
  -0.25000000  0.12500000  0.50000000       0.003
  -0.12500000  0.12500000  0.50000000       0.003
  -0.00000000  0.25000000  0.50000000       0.003
   0.12500000  0.25000000  0.50000000       0.003
   0.25000000  0.25000000  0.50000000       0.003
   0.37500000  0.25000000  0.50000000       0.003
   0.50000000  0.25000000  0.50000000       0.003
  -0.37500000  0.25000000  0.50000000       0.003
  -0.25000000  0.25000000  0.50000000       0.003
  -0.12500000  0.25000000  0.50000000       0.003
  -0.00000000  0.37500000  0.50000000       0.003
   0.12500000  0.37500000  0.50000000       0.003
   0.25000000  0.37500000  0.50000000       0.003
   0.37500000  0.37500000  0.50000000       0.003
   0.50000000  0.37500000  0.50000000       0.003
  -0.37500000  0.37500000  0.50000000       0.003
  -0.25000000  0.37500000  0.50000000       0.003
  -0.12500000  0.37500000  0.50000000       0.003
  -0.00000000  0.50000000  0.50000000       0.003
   0.12500000  0.50000000  0.50000000       0.003
   0.25000000  0.50000000  0.50000000       0.003
   0.37500000  0.50000000  0.50000000       0.003
   0.50000000  0.50000000  0.50000000       0.003
  -0.37500000  0.50000000  0.50000000       0.003
  -0.25000000  0.50000000  0.50000000       0.003
  -0.12500000  0.50000000  0.50000000       0.003
   0.00000000 -0.37500000  0.50000000       0.003
   0.12500000 -0.37500000  0.50000000       0.003
   0.25000000 -0.37500000  0.50000000       0.003
   0.37500000 -0.37500000  0.50000000       0.003
   0.50000000 -0.37500000  0.50000000       0.003
  -0.37500000 -0.37500000  0.50000000       0.003
  -0.25000000 -0.37500000  0.50000000       0.003
  -0.12500000 -0.37500000  0.50000000       0.003
  -0.00000000 -0.25000000  0.50000000       0.003
   0.12500000 -0.25000000  0.50000000       0.003
   0.25000000 -0.25000000  0.50000000       0.003
   0.37500000 -0.25000000  0.50000000       0.003
   0.50000000 -0.25000000  0.50000000       0.003
  -0.37500000 -0.25000000  0.50000000       0.003
  -0.25000000 -0.25000000  0.50000000       0.003
  -0.12500000 -0.25000000  0.50000000       0.003
  -0.00000000 -0.12500000  0.50000000       0.003
   0.12500000 -0.12500000  0.50000000       0.003
   0.25000000 -0.12500000  0.50000000       0.003
   0.37500000 -0.12500000  0.50000000       0.003
   0.50000000 -0.12500000  0.50000000       0.003
  -0.37500000 -0.12500000  0.50000000       0.003
  -0.25000000 -0.12500000  0.50000000       0.003
  -0.12500000 -0.12500000  0.50000000       0.003
   0.00000000 -0.00000000 -0.33333333       0.003
   0.12500000  0.00000000 -0.33333333       0.003
   0.25000000  0.00000000 -0.33333333       0.003
   0.37500000 -0.00000000 -0.33333333       0.003
   0.50000000 -0.00000000 -0.33333333       0.003
  -0.37500000 -0.00000000 -0.33333333       0.003
  -0.25000000  0.00000000 -0.33333333       0.003
  -0.12500000  0.00000000 -0.33333333       0.003
  -0.00000000  0.12500000 -0.33333333       0.003
   0.12500000  0.12500000 -0.33333333       0.003
   0.25000000  0.12500000 -0.33333333       0.003
   0.37500000  0.12500000 -0.33333333       0.003
   0.50000000  0.12500000 -0.33333333       0.003
  -0.37500000  0.12500000 -0.33333333       0.003
  -0.25000000  0.12500000 -0.33333333       0.003
  -0.12500000  0.12500000 -0.33333333       0.003
  -0.00000000  0.25000000 -0.33333333       0.003
   0.12500000  0.25000000 -0.33333333       0.003
   0.25000000  0.25000000 -0.33333333       0.003
   0.37500000  0.25000000 -0.33333333       0.003
   0.50000000  0.25000000 -0.33333333       0.003
  -0.37500000  0.25000000 -0.33333333       0.003
  -0.25000000  0.25000000 -0.33333333       0.003
  -0.12500000  0.25000000 -0.33333333       0.003
   0.00000000  0.37500000 -0.33333333       0.003
   0.12500000  0.37500000 -0.33333333       0.003
   0.25000000  0.37500000 -0.33333333       0.003
   0.37500000  0.37500000 -0.33333333       0.003
   0.50000000  0.37500000 -0.33333333       0.003
  -0.37500000  0.37500000 -0.33333333       0.003
  -0.25000000  0.37500000 -0.33333333       0.003
  -0.12500000  0.37500000 -0.33333333       0.003
   0.00000000  0.50000000 -0.33333333       0.003
   0.12500000  0.50000000 -0.33333333       0.003
   0.25000000  0.50000000 -0.33333333       0.003
   0.37500000  0.50000000 -0.33333333       0.003
   0.50000000  0.50000000 -0.33333333       0.003
  -0.37500000  0.50000000 -0.33333333       0.003
  -0.25000000  0.50000000 -0.33333333       0.003
  -0.12500000  0.50000000 -0.33333333       0.003
   0.00000000 -0.37500000 -0.33333333       0.003
   0.12500000 -0.37500000 -0.33333333       0.003
   0.25000000 -0.37500000 -0.33333333       0.003
   0.37500000 -0.37500000 -0.33333333       0.003
   0.50000000 -0.37500000 -0.33333333       0.003
  -0.37500000 -0.37500000 -0.33333333       0.003
  -0.25000000 -0.37500000 -0.33333333       0.003
  -0.12500000 -0.37500000 -0.33333333       0.003
  -0.00000000 -0.25000000 -0.33333333       0.003
   0.12500000 -0.25000000 -0.33333333       0.003
   0.25000000 -0.25000000 -0.33333333       0.003
   0.37500000 -0.25000000 -0.33333333       0.003
   0.50000000 -0.25000000 -0.33333333       0.003
  -0.37500000 -0.25000000 -0.33333333       0.003
  -0.25000000 -0.25000000 -0.33333333       0.003
  -0.12500000 -0.25000000 -0.33333333       0.003
  -0.00000000 -0.12500000 -0.33333333       0.003
   0.12500000 -0.12500000 -0.33333333       0.003
   0.25000000 -0.12500000 -0.33333333       0.003
   0.37500000 -0.12500000 -0.33333333       0.003
   0.50000000 -0.12500000 -0.33333333       0.003
  -0.37500000 -0.12500000 -0.33333333       0.003
  -0.25000000 -0.12500000 -0.33333333       0.003
  -0.12500000 -0.12500000 -0.33333333       0.003
   0.00000000 -0.00000000 -0.16666667       0.003
   0.12500000  0.00000000 -0.16666667       0.003
   0.25000000 -0.00000000 -0.16666667       0.003
   0.37500000 -0.00000000 -0.16666667       0.003
   0.50000000  0.00000000 -0.16666667       0.003
  -0.37500000  0.00000000 -0.16666667       0.003
  -0.25000000 -0.00000000 -0.16666667       0.003
  -0.12500000  0.00000000 -0.16666667       0.003
  -0.00000000  0.12500000 -0.16666667       0.003
   0.12500000  0.12500000 -0.16666667       0.003
   0.25000000  0.12500000 -0.16666667       0.003
   0.37500000  0.12500000 -0.16666667       0.003
   0.50000000  0.12500000 -0.16666667       0.003
  -0.37500000  0.12500000 -0.16666667       0.003
  -0.25000000  0.12500000 -0.16666667       0.003
  -0.12500000  0.12500000 -0.16666667       0.003
   0.00000000  0.25000000 -0.16666667       0.003
   0.12500000  0.25000000 -0.16666667       0.003
   0.25000000  0.25000000 -0.16666667       0.003
   0.37500000  0.25000000 -0.16666667       0.003
   0.50000000  0.25000000 -0.16666667       0.003
  -0.37500000  0.25000000 -0.16666667       0.003
  -0.25000000  0.25000000 -0.16666667       0.003
  -0.12500000  0.25000000 -0.16666667       0.003
  -0.00000000  0.37500000 -0.16666667       0.003
   0.12500000  0.37500000 -0.16666667       0.003
   0.25000000  0.37500000 -0.16666667       0.003
   0.37500000  0.37500000 -0.16666667       0.003
   0.50000000  0.37500000 -0.16666667       0.003
  -0.37500000  0.37500000 -0.16666667       0.003
  -0.25000000  0.37500000 -0.16666667       0.003
  -0.12500000  0.37500000 -0.16666667       0.003
   0.00000000  0.50000000 -0.16666667       0.003
   0.12500000  0.50000000 -0.16666667       0.003
   0.25000000  0.50000000 -0.16666667       0.003
   0.37500000  0.50000000 -0.16666667       0.003
   0.50000000  0.50000000 -0.16666667       0.003
  -0.37500000  0.50000000 -0.16666667       0.003
  -0.25000000  0.50000000 -0.16666667       0.003
  -0.12500000  0.50000000 -0.16666667       0.003
  -0.00000000 -0.37500000 -0.16666667       0.003
   0.12500000 -0.37500000 -0.16666667       0.003
   0.25000000 -0.37500000 -0.16666667       0.003
   0.37500000 -0.37500000 -0.16666667       0.003
   0.50000000 -0.37500000 -0.16666667       0.003
  -0.37500000 -0.37500000 -0.16666667       0.003
  -0.25000000 -0.37500000 -0.16666667       0.003
  -0.12500000 -0.37500000 -0.16666667       0.003
  -0.00000000 -0.25000000 -0.16666667       0.003
   0.12500000 -0.25000000 -0.16666667       0.003
   0.25000000 -0.25000000 -0.16666667       0.003
   0.37500000 -0.25000000 -0.16666667       0.003
   0.50000000 -0.25000000 -0.16666667       0.003
  -0.37500000 -0.25000000 -0.16666667       0.003
  -0.25000000 -0.25000000 -0.16666667       0.003
  -0.12500000 -0.25000000 -0.16666667       0.003
  -0.00000000 -0.12500000 -0.16666667       0.003
   0.12500000 -0.12500000 -0.16666667       0.003
   0.25000000 -0.12500000 -0.16666667       0.003
   0.37500000 -0.12500000 -0.16666667       0.003
   0.50000000 -0.12500000 -0.16666667       0.003
  -0.37500000 -0.12500000 -0.16666667       0.003
  -0.25000000 -0.12500000 -0.16666667       0.003
  -0.12500000 -0.12500000 -0.16666667       0.003
 
 position of ions in fractional coordinates (direct lattice) 
   0.65451176  0.34548859  0.52189166
   0.25347579  0.74652456  0.02189370
   0.68625256  0.31374779  0.92140488
   0.22172524  0.77827511  0.42140447
 
 position of ions in cartesian coordinates  (Angst):
   1.79794000 -0.67293866  2.44702000
   1.79794000  1.07369745  0.10266000
   1.79794000 -0.81117175  4.32024000
   1.79794000  1.21199063  1.97587000
 


--------------------------------------------------------------------------------------------------------


 k-point   1 :   0.0000 0.0000 0.0000  plane waves:    1221
 k-point   2 :   0.1250-0.0000 0.0000  plane waves:    1228
 k-point   3 :   0.2500-0.0000 0.0000  plane waves:    1226
 k-point   4 :   0.3750-0.0000-0.0000  plane waves:    1232
 k-point   5 :   0.5000-0.0000-0.0000  plane waves:    1230
 k-point   6 :  -0.3750 0.0000 0.0000  plane waves:    1232
 k-point   7 :  -0.2500 0.0000-0.0000  plane waves:    1226
 k-point   8 :  -0.1250 0.0000 0.0000  plane waves:    1228
 k-point   9 :  -0.0000 0.1250 0.0000  plane waves:    1228
 k-point  10 :   0.1250 0.1250 0.0000  plane waves:    1231
 k-point  11 :   0.2500 0.1250-0.0000  plane waves:    1236
 k-point  12 :   0.3750 0.1250-0.0000  plane waves:    1223
 k-point  13 :   0.5000 0.1250-0.0000  plane waves:    1236
 k-point  14 :  -0.3750 0.1250-0.0000  plane waves:    1226
 k-point  15 :  -0.2500 0.1250 0.0000  plane waves:    1216
 k-point  16 :  -0.1250 0.1250 0.0000  plane waves:    1227
 k-point  17 :  -0.0000 0.2500 0.0000  plane waves:    1226
 k-point  18 :   0.1250 0.2500-0.0000  plane waves:    1236
 k-point  19 :   0.2500 0.2500-0.0000  plane waves:    1229
 k-point  20 :   0.3750 0.2500-0.0000  plane waves:    1219
 k-point  21 :   0.5000 0.2500 0.0000  plane waves:    1228
 k-point  22 :  -0.3750 0.2500 0.0000  plane waves:    1227
 k-point  23 :  -0.2500 0.2500 0.0000  plane waves:    1227
 k-point  24 :  -0.1250 0.2500-0.0000  plane waves:    1216
 k-point  25 :  -0.0000 0.3750-0.0000  plane waves:    1232
 k-point  26 :   0.1250 0.3750-0.0000  plane waves:    1223
 k-point  27 :   0.2500 0.3750-0.0000  plane waves:    1219
 k-point  28 :   0.3750 0.3750 0.0000  plane waves:    1227
 k-point  29 :   0.5000 0.3750 0.0000  plane waves:    1222
 k-point  30 :  -0.3750 0.3750 0.0000  plane waves:    1210
 k-point  31 :  -0.2500 0.3750-0.0000  plane waves:    1227
 k-point  32 :  -0.1250 0.3750 0.0000  plane waves:    1226
 k-point  33 :  -0.0000 0.5000-0.0000  plane waves:    1230
 k-point  34 :   0.1250 0.5000-0.0000  plane waves:    1236
 k-point  35 :   0.2500 0.5000 0.0000  plane waves:    1228
 k-point  36 :   0.3750 0.5000 0.0000  plane waves:    1222
 k-point  37 :   0.5000 0.5000 0.0000  plane waves:    1224
 k-point  38 :  -0.3750 0.5000-0.0000  plane waves:    1222
 k-point  39 :  -0.2500 0.5000 0.0000  plane waves:    1228
 k-point  40 :  -0.1250 0.5000-0.0000  plane waves:    1236
 k-point  41 :   0.0000-0.3750 0.0000  plane waves:    1232
 k-point  42 :   0.1250-0.3750-0.0000  plane waves:    1226
 k-point  43 :   0.2500-0.3750 0.0000  plane waves:    1227
 k-point  44 :   0.3750-0.3750 0.0000  plane waves:    1210
 k-point  45 :   0.5000-0.3750-0.0000  plane waves:    1222
 k-point  46 :  -0.3750-0.3750-0.0000  plane waves:    1227
 k-point  47 :  -0.2500-0.3750 0.0000  plane waves:    1219
 k-point  48 :  -0.1250-0.3750 0.0000  plane waves:    1223
 k-point  49 :   0.0000-0.2500-0.0000  plane waves:    1226
 k-point  50 :   0.1250-0.2500 0.0000  plane waves:    1216
 k-point  51 :   0.2500-0.2500 0.0000  plane waves:    1227
 k-point  52 :   0.3750-0.2500-0.0000  plane waves:    1227
 k-point  53 :   0.5000-0.2500 0.0000  plane waves:    1228
 k-point  54 :  -0.3750-0.2500 0.0000  plane waves:    1219
 k-point  55 :  -0.2500-0.2500 0.0000  plane waves:    1229
 k-point  56 :  -0.1250-0.2500 0.0000  plane waves:    1236
 k-point  57 :   0.0000-0.1250 0.0000  plane waves:    1228
 k-point  58 :   0.1250-0.1250 0.0000  plane waves:    1227
 k-point  59 :   0.2500-0.1250-0.0000  plane waves:    1216
 k-point  60 :   0.3750-0.1250 0.0000  plane waves:    1226
 k-point  61 :   0.5000-0.1250-0.0000  plane waves:    1236
 k-point  62 :  -0.3750-0.1250 0.0000  plane waves:    1223
 k-point  63 :  -0.2500-0.1250 0.0000  plane waves:    1236
 k-point  64 :  -0.1250-0.1250 0.0000  plane waves:    1231
 k-point  65 :  -0.0000-0.0000 0.1667  plane waves:    1231
 k-point  66 :   0.1250-0.0000 0.1667  plane waves:    1233
 k-point  67 :   0.2500 0.0000 0.1667  plane waves:    1226
 k-point  68 :   0.3750-0.0000 0.1667  plane waves:    1230
 k-point  69 :   0.5000-0.0000 0.1667  plane waves:    1234
 k-point  70 :  -0.3750 0.0000 0.1667  plane waves:    1230
 k-point  71 :  -0.2500 0.0000 0.1667  plane waves:    1226
 k-point  72 :  -0.1250-0.0000 0.1667  plane waves:    1233
 k-point  73 :   0.0000 0.1250 0.1667  plane waves:    1233
 k-point  74 :   0.1250 0.1250 0.1667  plane waves:    1228
 k-point  75 :   0.2500 0.1250 0.1667  plane waves:    1226
 k-point  76 :   0.3750 0.1250 0.1667  plane waves:    1223
 k-point  77 :   0.5000 0.1250 0.1667  plane waves:    1227
 k-point  78 :  -0.3750 0.1250 0.1667  plane waves:    1222
 k-point  79 :  -0.2500 0.1250 0.1667  plane waves:    1222
 k-point  80 :  -0.1250 0.1250 0.1667  plane waves:    1228
 k-point  81 :   0.0000 0.2500 0.1667  plane waves:    1226
 k-point  82 :   0.1250 0.2500 0.1667  plane waves:    1226
 k-point  83 :   0.2500 0.2500 0.1667  plane waves:    1230
 k-point  84 :   0.3750 0.2500 0.1667  plane waves:    1223
 k-point  85 :   0.5000 0.2500 0.1667  plane waves:    1228
 k-point  86 :  -0.3750 0.2500 0.1667  plane waves:    1229
 k-point  87 :  -0.2500 0.2500 0.1667  plane waves:    1224
 k-point  88 :  -0.1250 0.2500 0.1667  plane waves:    1222
 k-point  89 :   0.0000 0.3750 0.1667  plane waves:    1230
 k-point  90 :   0.1250 0.3750 0.1667  plane waves:    1223
 k-point  91 :   0.2500 0.3750 0.1667  plane waves:    1223
 k-point  92 :   0.3750 0.3750 0.1667  plane waves:    1216
 k-point  93 :   0.5000 0.3750 0.1667  plane waves:    1218
 k-point  94 :  -0.3750 0.3750 0.1667  plane waves:    1223
 k-point  95 :  -0.2500 0.3750 0.1667  plane waves:    1229
 k-point  96 :  -0.1250 0.3750 0.1667  plane waves:    1222
 k-point  97 :  -0.0000 0.5000 0.1667  plane waves:    1234
 k-point  98 :   0.1250 0.5000 0.1667  plane waves:    1227
 k-point  99 :   0.2500 0.5000 0.1667  plane waves:    1228
 k-point 100 :   0.3750 0.5000 0.1667  plane waves:    1218
 k-point 101 :   0.5000 0.5000 0.1667  plane waves:    1218
 k-point 102 :  -0.3750 0.5000 0.1667  plane waves:    1218
 k-point 103 :  -0.2500 0.5000 0.1667  plane waves:    1228
 k-point 104 :  -0.1250 0.5000 0.1667  plane waves:    1227
 k-point 105 :   0.0000-0.3750 0.1667  plane waves:    1230
 k-point 106 :   0.1250-0.3750 0.1667  plane waves:    1222
 k-point 107 :   0.2500-0.3750 0.1667  plane waves:    1229
 k-point 108 :   0.3750-0.3750 0.1667  plane waves:    1223
 k-point 109 :   0.5000-0.3750 0.1667  plane waves:    1218
 k-point 110 :  -0.3750-0.3750 0.1667  plane waves:    1216
 k-point 111 :  -0.2500-0.3750 0.1667  plane waves:    1223
 k-point 112 :  -0.1250-0.3750 0.1667  plane waves:    1223
 k-point 113 :  -0.0000-0.2500 0.1667  plane waves:    1226
 k-point 114 :   0.1250-0.2500 0.1667  plane waves:    1222
 k-point 115 :   0.2500-0.2500 0.1667  plane waves:    1224
 k-point 116 :   0.3750-0.2500 0.1667  plane waves:    1229
 k-point 117 :   0.5000-0.2500 0.1667  plane waves:    1228
 k-point 118 :  -0.3750-0.2500 0.1667  plane waves:    1223
 k-point 119 :  -0.2500-0.2500 0.1667  plane waves:    1230
 k-point 120 :  -0.1250-0.2500 0.1667  plane waves:    1226
 k-point 121 :   0.0000-0.1250 0.1667  plane waves:    1233
 k-point 122 :   0.1250-0.1250 0.1667  plane waves:    1228
 k-point 123 :   0.2500-0.1250 0.1667  plane waves:    1222
 k-point 124 :   0.3750-0.1250 0.1667  plane waves:    1222
 k-point 125 :   0.5000-0.1250 0.1667  plane waves:    1227
 k-point 126 :  -0.3750-0.1250 0.1667  plane waves:    1223
 k-point 127 :  -0.2500-0.1250 0.1667  plane waves:    1226
 k-point 128 :  -0.1250-0.1250 0.1667  plane waves:    1228
 k-point 129 :  -0.0000-0.0000 0.3333  plane waves:    1243
 k-point 130 :   0.1250-0.0000 0.3333  plane waves:    1233
 k-point 131 :   0.2500-0.0000 0.3333  plane waves:    1223
 k-point 132 :   0.3750 0.0000 0.3333  plane waves:    1220
 k-point 133 :   0.5000 0.0000 0.3333  plane waves:    1222
 k-point 134 :  -0.3750 0.0000 0.3333  plane waves:    1220
 k-point 135 :  -0.2500-0.0000 0.3333  plane waves:    1223
 k-point 136 :  -0.1250-0.0000 0.3333  plane waves:    1233
 k-point 137 :   0.0000 0.1250 0.3333  plane waves:    1233
 k-point 138 :   0.1250 0.1250 0.3333  plane waves:    1224
 k-point 139 :   0.2500 0.1250 0.3333  plane waves:    1226
 k-point 140 :   0.3750 0.1250 0.3333  plane waves:    1227
 k-point 141 :   0.5000 0.1250 0.3333  plane waves:    1224
 k-point 142 :  -0.3750 0.1250 0.3333  plane waves:    1227
 k-point 143 :  -0.2500 0.1250 0.3333  plane waves:    1227
 k-point 144 :  -0.1250 0.1250 0.3333  plane waves:    1241
 k-point 145 :   0.0000 0.2500 0.3333  plane waves:    1223
 k-point 146 :   0.1250 0.2500 0.3333  plane waves:    1226
 k-point 147 :   0.2500 0.2500 0.3333  plane waves:    1225
 k-point 148 :   0.3750 0.2500 0.3333  plane waves:    1226
 k-point 149 :   0.5000 0.2500 0.3333  plane waves:    1218
 k-point 150 :  -0.3750 0.2500 0.3333  plane waves:    1217
 k-point 151 :  -0.2500 0.2500 0.3333  plane waves:    1224
 k-point 152 :  -0.1250 0.2500 0.3333  plane waves:    1227
 k-point 153 :  -0.0000 0.3750 0.3333  plane waves:    1220
 k-point 154 :   0.1250 0.3750 0.3333  plane waves:    1227
 k-point 155 :   0.2500 0.3750 0.3333  plane waves:    1226
 k-point 156 :   0.3750 0.3750 0.3333  plane waves:    1215
 k-point 157 :   0.5000 0.3750 0.3333  plane waves:    1215
 k-point 158 :  -0.3750 0.3750 0.3333  plane waves:    1215
 k-point 159 :  -0.2500 0.3750 0.3333  plane waves:    1217
 k-point 160 :  -0.1250 0.3750 0.3333  plane waves:    1227
 k-point 161 :   0.0000 0.5000 0.3333  plane waves:    1222
 k-point 162 :   0.1250 0.5000 0.3333  plane waves:    1224
 k-point 163 :   0.2500 0.5000 0.3333  plane waves:    1218
 k-point 164 :   0.3750 0.5000 0.3333  plane waves:    1215
 k-point 165 :   0.5000 0.5000 0.3333  plane waves:    1210
 k-point 166 :  -0.3750 0.5000 0.3333  plane waves:    1215
 k-point 167 :  -0.2500 0.5000 0.3333  plane waves:    1218
 k-point 168 :  -0.1250 0.5000 0.3333  plane waves:    1224
 k-point 169 :  -0.0000-0.3750 0.3333  plane waves:    1220
 k-point 170 :   0.1250-0.3750 0.3333  plane waves:    1227
 k-point 171 :   0.2500-0.3750 0.3333  plane waves:    1217
 k-point 172 :   0.3750-0.3750 0.3333  plane waves:    1215
 k-point 173 :   0.5000-0.3750 0.3333  plane waves:    1215
 k-point 174 :  -0.3750-0.3750 0.3333  plane waves:    1215
 k-point 175 :  -0.2500-0.3750 0.3333  plane waves:    1226
 k-point 176 :  -0.1250-0.3750 0.3333  plane waves:    1227
 k-point 177 :   0.0000-0.2500 0.3333  plane waves:    1223
 k-point 178 :   0.1250-0.2500 0.3333  plane waves:    1227
 k-point 179 :   0.2500-0.2500 0.3333  plane waves:    1224
 k-point 180 :   0.3750-0.2500 0.3333  plane waves:    1217
 k-point 181 :   0.5000-0.2500 0.3333  plane waves:    1218
 k-point 182 :  -0.3750-0.2500 0.3333  plane waves:    1226
 k-point 183 :  -0.2500-0.2500 0.3333  plane waves:    1225
 k-point 184 :  -0.1250-0.2500 0.3333  plane waves:    1226
 k-point 185 :   0.0000-0.1250 0.3333  plane waves:    1233
 k-point 186 :   0.1250-0.1250 0.3333  plane waves:    1241
 k-point 187 :   0.2500-0.1250 0.3333  plane waves:    1227
 k-point 188 :   0.3750-0.1250 0.3333  plane waves:    1227
 k-point 189 :   0.5000-0.1250 0.3333  plane waves:    1224
 k-point 190 :  -0.3750-0.1250 0.3333  plane waves:    1227
 k-point 191 :  -0.2500-0.1250 0.3333  plane waves:    1226
 k-point 192 :  -0.1250-0.1250 0.3333  plane waves:    1224
 k-point 193 :  -0.0000 0.0000 0.5000  plane waves:    1242
 k-point 194 :   0.1250 0.0000 0.5000  plane waves:    1232
 k-point 195 :   0.2500-0.0000 0.5000  plane waves:    1232
 k-point 196 :   0.3750-0.0000 0.5000  plane waves:    1218
 k-point 197 :   0.5000-0.0000 0.5000  plane waves:    1220
 k-point 198 :  -0.3750-0.0000 0.5000  plane waves:    1218
 k-point 199 :  -0.2500 0.0000 0.5000  plane waves:    1232
 k-point 200 :  -0.1250-0.0000 0.5000  plane waves:    1232
 k-point 201 :  -0.0000 0.1250 0.5000  plane waves:    1232
 k-point 202 :   0.1250 0.1250 0.5000  plane waves:    1236
 k-point 203 :   0.2500 0.1250 0.5000  plane waves:    1228
 k-point 204 :   0.3750 0.1250 0.5000  plane waves:    1226
 k-point 205 :   0.5000 0.1250 0.5000  plane waves:    1226
 k-point 206 :  -0.3750 0.1250 0.5000  plane waves:    1224
 k-point 207 :  -0.2500 0.1250 0.5000  plane waves:    1232
 k-point 208 :  -0.1250 0.1250 0.5000  plane waves:    1236
 k-point 209 :  -0.0000 0.2500 0.5000  plane waves:    1232
 k-point 210 :   0.1250 0.2500 0.5000  plane waves:    1228
 k-point 211 :   0.2500 0.2500 0.5000  plane waves:    1236
 k-point 212 :   0.3750 0.2500 0.5000  plane waves:    1226
 k-point 213 :   0.5000 0.2500 0.5000  plane waves:    1214
 k-point 214 :  -0.3750 0.2500 0.5000  plane waves:    1216
 k-point 215 :  -0.2500 0.2500 0.5000  plane waves:    1236
 k-point 216 :  -0.1250 0.2500 0.5000  plane waves:    1232
 k-point 217 :  -0.0000 0.3750 0.5000  plane waves:    1218
 k-point 218 :   0.1250 0.3750 0.5000  plane waves:    1226
 k-point 219 :   0.2500 0.3750 0.5000  plane waves:    1226
 k-point 220 :   0.3750 0.3750 0.5000  plane waves:    1222
 k-point 221 :   0.5000 0.3750 0.5000  plane waves:    1212
 k-point 222 :  -0.3750 0.3750 0.5000  plane waves:    1204
 k-point 223 :  -0.2500 0.3750 0.5000  plane waves:    1216
 k-point 224 :  -0.1250 0.3750 0.5000  plane waves:    1224
 k-point 225 :  -0.0000 0.5000 0.5000  plane waves:    1220
 k-point 226 :   0.1250 0.5000 0.5000  plane waves:    1226
 k-point 227 :   0.2500 0.5000 0.5000  plane waves:    1214
 k-point 228 :   0.3750 0.5000 0.5000  plane waves:    1212
 k-point 229 :   0.5000 0.5000 0.5000  plane waves:    1212
 k-point 230 :  -0.3750 0.5000 0.5000  plane waves:    1212
 k-point 231 :  -0.2500 0.5000 0.5000  plane waves:    1214
 k-point 232 :  -0.1250 0.5000 0.5000  plane waves:    1226
 k-point 233 :   0.0000-0.3750 0.5000  plane waves:    1218
 k-point 234 :   0.1250-0.3750 0.5000  plane waves:    1224
 k-point 235 :   0.2500-0.3750 0.5000  plane waves:    1216
 k-point 236 :   0.3750-0.3750 0.5000  plane waves:    1204
 k-point 237 :   0.5000-0.3750 0.5000  plane waves:    1212
 k-point 238 :  -0.3750-0.3750 0.5000  plane waves:    1222
 k-point 239 :  -0.2500-0.3750 0.5000  plane waves:    1226
 k-point 240 :  -0.1250-0.3750 0.5000  plane waves:    1226
 k-point 241 :  -0.0000-0.2500 0.5000  plane waves:    1232
 k-point 242 :   0.1250-0.2500 0.5000  plane waves:    1232
 k-point 243 :   0.2500-0.2500 0.5000  plane waves:    1236
 k-point 244 :   0.3750-0.2500 0.5000  plane waves:    1216
 k-point 245 :   0.5000-0.2500 0.5000  plane waves:    1214
 k-point 246 :  -0.3750-0.2500 0.5000  plane waves:    1226
 k-point 247 :  -0.2500-0.2500 0.5000  plane waves:    1236
 k-point 248 :  -0.1250-0.2500 0.5000  plane waves:    1228
 k-point 249 :  -0.0000-0.1250 0.5000  plane waves:    1232
 k-point 250 :   0.1250-0.1250 0.5000  plane waves:    1236
 k-point 251 :   0.2500-0.1250 0.5000  plane waves:    1232
 k-point 252 :   0.3750-0.1250 0.5000  plane waves:    1224
 k-point 253 :   0.5000-0.1250 0.5000  plane waves:    1226
 k-point 254 :  -0.3750-0.1250 0.5000  plane waves:    1226
 k-point 255 :  -0.2500-0.1250 0.5000  plane waves:    1228
 k-point 256 :  -0.1250-0.1250 0.5000  plane waves:    1236
 k-point 257 :   0.0000-0.0000-0.3333  plane waves:    1243
 k-point 258 :   0.1250 0.0000-0.3333  plane waves:    1233
 k-point 259 :   0.2500 0.0000-0.3333  plane waves:    1223
 k-point 260 :   0.3750-0.0000-0.3333  plane waves:    1220
 k-point 261 :   0.5000-0.0000-0.3333  plane waves:    1222
 k-point 262 :  -0.3750-0.0000-0.3333  plane waves:    1220
 k-point 263 :  -0.2500 0.0000-0.3333  plane waves:    1223
 k-point 264 :  -0.1250 0.0000-0.3333  plane waves:    1233
 k-point 265 :  -0.0000 0.1250-0.3333  plane waves:    1233
 k-point 266 :   0.1250 0.1250-0.3333  plane waves:    1224
 k-point 267 :   0.2500 0.1250-0.3333  plane waves:    1226
 k-point 268 :   0.3750 0.1250-0.3333  plane waves:    1227
 k-point 269 :   0.5000 0.1250-0.3333  plane waves:    1224
 k-point 270 :  -0.3750 0.1250-0.3333  plane waves:    1227
 k-point 271 :  -0.2500 0.1250-0.3333  plane waves:    1227
 k-point 272 :  -0.1250 0.1250-0.3333  plane waves:    1241
 k-point 273 :  -0.0000 0.2500-0.3333  plane waves:    1223
 k-point 274 :   0.1250 0.2500-0.3333  plane waves:    1226
 k-point 275 :   0.2500 0.2500-0.3333  plane waves:    1225
 k-point 276 :   0.3750 0.2500-0.3333  plane waves:    1226
 k-point 277 :   0.5000 0.2500-0.3333  plane waves:    1218
 k-point 278 :  -0.3750 0.2500-0.3333  plane waves:    1217
 k-point 279 :  -0.2500 0.2500-0.3333  plane waves:    1224
 k-point 280 :  -0.1250 0.2500-0.3333  plane waves:    1227
 k-point 281 :   0.0000 0.3750-0.3333  plane waves:    1220
 k-point 282 :   0.1250 0.3750-0.3333  plane waves:    1227
 k-point 283 :   0.2500 0.3750-0.3333  plane waves:    1226
 k-point 284 :   0.3750 0.3750-0.3333  plane waves:    1215
 k-point 285 :   0.5000 0.3750-0.3333  plane waves:    1215
 k-point 286 :  -0.3750 0.3750-0.3333  plane waves:    1215
 k-point 287 :  -0.2500 0.3750-0.3333  plane waves:    1217
 k-point 288 :  -0.1250 0.3750-0.3333  plane waves:    1227
 k-point 289 :   0.0000 0.5000-0.3333  plane waves:    1222
 k-point 290 :   0.1250 0.5000-0.3333  plane waves:    1224
 k-point 291 :   0.2500 0.5000-0.3333  plane waves:    1218
 k-point 292 :   0.3750 0.5000-0.3333  plane waves:    1215
 k-point 293 :   0.5000 0.5000-0.3333  plane waves:    1210
 k-point 294 :  -0.3750 0.5000-0.3333  plane waves:    1215
 k-point 295 :  -0.2500 0.5000-0.3333  plane waves:    1218
 k-point 296 :  -0.1250 0.5000-0.3333  plane waves:    1224
 k-point 297 :   0.0000-0.3750-0.3333  plane waves:    1220
 k-point 298 :   0.1250-0.3750-0.3333  plane waves:    1227
 k-point 299 :   0.2500-0.3750-0.3333  plane waves:    1217
 k-point 300 :   0.3750-0.3750-0.3333  plane waves:    1215
 k-point 301 :   0.5000-0.3750-0.3333  plane waves:    1215
 k-point 302 :  -0.3750-0.3750-0.3333  plane waves:    1215
 k-point 303 :  -0.2500-0.3750-0.3333  plane waves:    1226
 k-point 304 :  -0.1250-0.3750-0.3333  plane waves:    1227
 k-point 305 :  -0.0000-0.2500-0.3333  plane waves:    1223
 k-point 306 :   0.1250-0.2500-0.3333  plane waves:    1227
 k-point 307 :   0.2500-0.2500-0.3333  plane waves:    1224
 k-point 308 :   0.3750-0.2500-0.3333  plane waves:    1217
 k-point 309 :   0.5000-0.2500-0.3333  plane waves:    1218
 k-point 310 :  -0.3750-0.2500-0.3333  plane waves:    1226
 k-point 311 :  -0.2500-0.2500-0.3333  plane waves:    1225
 k-point 312 :  -0.1250-0.2500-0.3333  plane waves:    1226
 k-point 313 :  -0.0000-0.1250-0.3333  plane waves:    1233
 k-point 314 :   0.1250-0.1250-0.3333  plane waves:    1241
 k-point 315 :   0.2500-0.1250-0.3333  plane waves:    1227
 k-point 316 :   0.3750-0.1250-0.3333  plane waves:    1227
 k-point 317 :   0.5000-0.1250-0.3333  plane waves:    1224
 k-point 318 :  -0.3750-0.1250-0.3333  plane waves:    1227
 k-point 319 :  -0.2500-0.1250-0.3333  plane waves:    1226
 k-point 320 :  -0.1250-0.1250-0.3333  plane waves:    1224
 k-point 321 :   0.0000-0.0000-0.1667  plane waves:    1231
 k-point 322 :   0.1250 0.0000-0.1667  plane waves:    1233
 k-point 323 :   0.2500-0.0000-0.1667  plane waves:    1226
 k-point 324 :   0.3750-0.0000-0.1667  plane waves:    1230
 k-point 325 :   0.5000 0.0000-0.1667  plane waves:    1234
 k-point 326 :  -0.3750 0.0000-0.1667  plane waves:    1230
 k-point 327 :  -0.2500-0.0000-0.1667  plane waves:    1226
 k-point 328 :  -0.1250 0.0000-0.1667  plane waves:    1233
 k-point 329 :  -0.0000 0.1250-0.1667  plane waves:    1233
 k-point 330 :   0.1250 0.1250-0.1667  plane waves:    1228
 k-point 331 :   0.2500 0.1250-0.1667  plane waves:    1226
 k-point 332 :   0.3750 0.1250-0.1667  plane waves:    1223
 k-point 333 :   0.5000 0.1250-0.1667  plane waves:    1227
 k-point 334 :  -0.3750 0.1250-0.1667  plane waves:    1222
 k-point 335 :  -0.2500 0.1250-0.1667  plane waves:    1222
 k-point 336 :  -0.1250 0.1250-0.1667  plane waves:    1228
 k-point 337 :   0.0000 0.2500-0.1667  plane waves:    1226
 k-point 338 :   0.1250 0.2500-0.1667  plane waves:    1226
 k-point 339 :   0.2500 0.2500-0.1667  plane waves:    1230
 k-point 340 :   0.3750 0.2500-0.1667  plane waves:    1223
 k-point 341 :   0.5000 0.2500-0.1667  plane waves:    1228
 k-point 342 :  -0.3750 0.2500-0.1667  plane waves:    1229
 k-point 343 :  -0.2500 0.2500-0.1667  plane waves:    1224
 k-point 344 :  -0.1250 0.2500-0.1667  plane waves:    1222
 k-point 345 :  -0.0000 0.3750-0.1667  plane waves:    1230
 k-point 346 :   0.1250 0.3750-0.1667  plane waves:    1223
 k-point 347 :   0.2500 0.3750-0.1667  plane waves:    1223
 k-point 348 :   0.3750 0.3750-0.1667  plane waves:    1216
 k-point 349 :   0.5000 0.3750-0.1667  plane waves:    1218
 k-point 350 :  -0.3750 0.3750-0.1667  plane waves:    1223
 k-point 351 :  -0.2500 0.3750-0.1667  plane waves:    1229
 k-point 352 :  -0.1250 0.3750-0.1667  plane waves:    1222
 k-point 353 :   0.0000 0.5000-0.1667  plane waves:    1234
 k-point 354 :   0.1250 0.5000-0.1667  plane waves:    1227
 k-point 355 :   0.2500 0.5000-0.1667  plane waves:    1228
 k-point 356 :   0.3750 0.5000-0.1667  plane waves:    1218
 k-point 357 :   0.5000 0.5000-0.1667  plane waves:    1218
 k-point 358 :  -0.3750 0.5000-0.1667  plane waves:    1218
 k-point 359 :  -0.2500 0.5000-0.1667  plane waves:    1228
 k-point 360 :  -0.1250 0.5000-0.1667  plane waves:    1227
 k-point 361 :  -0.0000-0.3750-0.1667  plane waves:    1230
 k-point 362 :   0.1250-0.3750-0.1667  plane waves:    1222
 k-point 363 :   0.2500-0.3750-0.1667  plane waves:    1229
 k-point 364 :   0.3750-0.3750-0.1667  plane waves:    1223
 k-point 365 :   0.5000-0.3750-0.1667  plane waves:    1218
 k-point 366 :  -0.3750-0.3750-0.1667  plane waves:    1216
 k-point 367 :  -0.2500-0.3750-0.1667  plane waves:    1223
 k-point 368 :  -0.1250-0.3750-0.1667  plane waves:    1223
 k-point 369 :  -0.0000-0.2500-0.1667  plane waves:    1226
 k-point 370 :   0.1250-0.2500-0.1667  plane waves:    1222
 k-point 371 :   0.2500-0.2500-0.1667  plane waves:    1224
 k-point 372 :   0.3750-0.2500-0.1667  plane waves:    1229
 k-point 373 :   0.5000-0.2500-0.1667  plane waves:    1228
 k-point 374 :  -0.3750-0.2500-0.1667  plane waves:    1223
 k-point 375 :  -0.2500-0.2500-0.1667  plane waves:    1230
 k-point 376 :  -0.1250-0.2500-0.1667  plane waves:    1226
 k-point 377 :  -0.0000-0.1250-0.1667  plane waves:    1233
 k-point 378 :   0.1250-0.1250-0.1667  plane waves:    1228
 k-point 379 :   0.2500-0.1250-0.1667  plane waves:    1222
 k-point 380 :   0.3750-0.1250-0.1667  plane waves:    1222
 k-point 381 :   0.5000-0.1250-0.1667  plane waves:    1227
 k-point 382 :  -0.3750-0.1250-0.1667  plane waves:    1223
 k-point 383 :  -0.2500-0.1250-0.1667  plane waves:    1226
 k-point 384 :  -0.1250-0.1250-0.1667  plane waves:    1228

 maximum and minimum number of plane-waves per node :      1243     1204

 maximum number of plane-waves:      1243
 maximum index in each direction: 
   IXMAX=    6   IYMAX=    6   IZMAX=    9
   IXMIN=   -6   IYMIN=   -6   IZMIN=   -9


 serial   3D FFT for wavefunctions
 parallel 3D FFT for charge:
    minimum data exchange during FFTs selected (reduces bandwidth)


 total amount of memory used by VASP MPI-rank0   177935. kBytes
=======================================================================

   base      :      30000. kBytes
   nonl-proj :     138098. kBytes
   fftplans  :        347. kBytes
   grid      :       1368. kBytes
   one-center:         62. kBytes
   wavefun   :       8060. kBytes
 
     INWAV:  cpu time      0.0001: real time      0.0001
 Broyden mixing: mesh for mixing (old mesh)
   NGX = 11   NGY = 11   NGZ = 19
  (NGX  = 48   NGY  = 48   NGZ  = 80)
  gives a total of   2299 points

 initial charge density was supplied:
 charge density of overlapping atoms calculated
 number of electron      36.0000000 magnetization 
 keeping initial charge density in first step


--------------------------------------------------------------------------------------------------------


 Maximum index for augmentation-charges         1103 (set IRDMAX)


--------------------------------------------------------------------------------------------------------


 First call to EWALD:  gamma=   0.533
 Maximum number of real-space cells 3x 3x 2
 Maximum number of reciprocal cells 2x 2x 4

    FEWALD:  cpu time      0.0016: real time      0.0020


--------------------------------------- Iteration      1(   1)  ---------------------------------------


    POTLOK:  cpu time      0.0111: real time      0.0257
    SETDIJ:  cpu time      0.0053: real time      0.0097
     EDDAV:  cpu time      4.6122: real time      4.6556
       DOS:  cpu time      0.0034: real time      0.0069
    --------------------------------------------
      LOOP:  cpu time      4.6322: real time      4.6979

 eigenvalue-minimisations  : 24576
 total energy-change (2. order) : 0.5769469E+02  (-0.2300585E+04)
 number of electron      36.0000000 magnetization 
 augmentation part       36.0000000 magnetization 

 Free energy of the ion-electron system (eV)
  ---------------------------------------------------
  alpha Z        PSCENC =       245.95698856
  Ewald energy   TEWEN  =     -3476.00474951
  -Hartree energ DENC   =      -988.62352790
  -exchange      EXHF   =         0.00000000
  -V(xc)+E(xc)   XCENC  =       131.00186910
  PAW double counting   =      3616.17691320    -4285.66495278
  entropy T*S    EENTRO =        -0.00027300
  eigenvalues    EBANDS =       -11.88017850
  atomic energy  EATOM  =      4826.73260078
  Solvation  Ediel_sol  =         0.00000000
  ---------------------------------------------------
  free energy    TOTEN  =        57.69468994 eV

  energy without entropy =       57.69496295  energy(sigma->0) =       57.69482644


--------------------------------------------------------------------------------------------------------




--------------------------------------- Iteration      1(   2)  ---------------------------------------


     EDDAV:  cpu time      6.2473: real time      6.2934
       DOS:  cpu time      0.0013: real time      0.0013
    --------------------------------------------
      LOOP:  cpu time      6.2486: real time      6.2947

 eigenvalue-minimisations  : 29152
 total energy-change (2. order) :-0.8293893E+02  (-0.8228046E+02)
 number of electron      36.0000000 magnetization 
 augmentation part       36.0000000 magnetization 

 Free energy of the ion-electron system (eV)
  ---------------------------------------------------
  alpha Z        PSCENC =       245.95698856
  Ewald energy   TEWEN  =     -3476.00474951
  -Hartree energ DENC   =      -988.62352790
  -exchange      EXHF   =         0.00000000
  -V(xc)+E(xc)   XCENC  =       131.00186910
  PAW double counting   =      3616.17691320    -4285.66495278
  entropy T*S    EENTRO =        -0.00000000
  eigenvalues    EBANDS =       -94.81937892
  atomic energy  EATOM  =      4826.73260078
  Solvation  Ediel_sol  =         0.00000000
  ---------------------------------------------------
  free energy    TOTEN  =       -25.24423747 eV

  energy without entropy =      -25.24423747  energy(sigma->0) =      -25.24423747


--------------------------------------------------------------------------------------------------------




--------------------------------------- Iteration      1(   3)  ---------------------------------------


     EDDAV:  cpu time      6.0219: real time      6.0491
       DOS:  cpu time      0.0015: real time      0.0015
    --------------------------------------------
      LOOP:  cpu time      6.0233: real time      6.0506

 eigenvalue-minimisations  : 28352
 total energy-change (2. order) :-0.1186915E+01  (-0.1186915E+01)
 number of electron      36.0000000 magnetization 
 augmentation part       36.0000000 magnetization 

 Free energy of the ion-electron system (eV)
  ---------------------------------------------------
  alpha Z        PSCENC =       245.95698856
  Ewald energy   TEWEN  =     -3476.00474951
  -Hartree energ DENC   =      -988.62352790
  -exchange      EXHF   =         0.00000000
  -V(xc)+E(xc)   XCENC  =       131.00186910
  PAW double counting   =      3616.17691320    -4285.66495278
  entropy T*S    EENTRO =        -0.00000000
  eigenvalues    EBANDS =       -96.00629345
  atomic energy  EATOM  =      4826.73260078
  Solvation  Ediel_sol  =         0.00000000
  ---------------------------------------------------
  free energy    TOTEN  =       -26.43115200 eV

  energy without entropy =      -26.43115200  energy(sigma->0) =      -26.43115200


--------------------------------------------------------------------------------------------------------




--------------------------------------- Iteration      1(   4)  ---------------------------------------


     EDDAV:  cpu time     12.0586: real time     12.1148
       DOS:  cpu time      0.0015: real time      0.0015
    --------------------------------------------
      LOOP:  cpu time     12.0602: real time     12.1163

 eigenvalue-minimisations  : 41984
 total energy-change (2. order) :-0.4640409E-02  (-0.4640409E-02)
 number of electron      36.0000000 magnetization 
 augmentation part       36.0000000 magnetization 

 Free energy of the ion-electron system (eV)
  ---------------------------------------------------
  alpha Z        PSCENC =       245.95698856
  Ewald energy   TEWEN  =     -3476.00474951
  -Hartree energ DENC   =      -988.62352790
  -exchange      EXHF   =         0.00000000
  -V(xc)+E(xc)   XCENC  =       131.00186910
  PAW double counting   =      3616.17691320    -4285.66495278
  entropy T*S    EENTRO =        -0.00000000
  eigenvalues    EBANDS =       -96.01093386
  atomic energy  EATOM  =      4826.73260078
  Solvation  Ediel_sol  =         0.00000000
  ---------------------------------------------------
  free energy    TOTEN  =       -26.43579241 eV

  energy without entropy =      -26.43579241  energy(sigma->0) =      -26.43579241


--------------------------------------------------------------------------------------------------------




--------------------------------------- Iteration      1(   5)  ---------------------------------------


     EDDAV:  cpu time      6.5812: real time      6.6087
       DOS:  cpu time      0.0014: real time      0.0014
    CHARGE:  cpu time      0.1269: real time      0.1345
    MIXING:  cpu time      0.0052: real time      0.0106
    --------------------------------------------
      LOOP:  cpu time      6.7148: real time      6.7552

 eigenvalue-minimisations  : 29696
 total energy-change (2. order) :-0.4558333E-06  (-0.4558295E-06)
 number of electron      36.0000003 magnetization 
 augmentation part       17.6954798 magnetization 

 Broyden mixing:
  rms(total) = 0.11538E+01    rms(broyden)= 0.11537E+01
  rms(prec ) = 0.25884E+01
  weight for this iteration     100.00

 Free energy of the ion-electron system (eV)
  ---------------------------------------------------
  alpha Z        PSCENC =       245.95698856
  Ewald energy   TEWEN  =     -3476.00474951
  -Hartree energ DENC   =      -988.62352790
  -exchange      EXHF   =         0.00000000
  -V(xc)+E(xc)   XCENC  =       131.00186910
  PAW double counting   =      3616.17691320    -4285.66495278
  entropy T*S    EENTRO =        -0.00000000
  eigenvalues    EBANDS =       -96.01093431
  atomic energy  EATOM  =      4826.73260078
  Solvation  Ediel_sol  =         0.00000000
  ---------------------------------------------------
  free energy    TOTEN  =       -26.43579287 eV

  energy without entropy =      -26.43579287  energy(sigma->0) =      -26.43579287


--------------------------------------------------------------------------------------------------------




--------------------------------------- Iteration      1(   6)  ---------------------------------------


    POTLOK:  cpu time      0.0046: real time      0.0046
    SETDIJ:  cpu time      0.0022: real time      0.0022
     EDDAV:  cpu time      7.4942: real time      7.5294
       DOS:  cpu time      0.0019: real time      0.0019
    CHARGE:  cpu time      0.1298: real time      0.1298
    MIXING:  cpu time      0.0018: real time      0.0024
    --------------------------------------------
      LOOP:  cpu time      7.6344: real time      7.6704

 eigenvalue-minimisations  : 33088
 total energy-change (2. order) : 0.4384288E+01  (-0.2505014E+01)
 number of electron      36.0000003 magnetization 
 augmentation part       17.4529396 magnetization 

 Broyden mixing:
  rms(total) = 0.38570E+00    rms(broyden)= 0.38564E+00
  rms(prec ) = 0.52805E+00
  weight for this iteration     100.00

 eigenvalues of (default mixing * dielectric matrix)
  average eigenvalue GAMMA=   0.9430
  0.9430

 Free energy of the ion-electron system (eV)
  ---------------------------------------------------
  alpha Z        PSCENC =       245.95698856
  Ewald energy   TEWEN  =     -3476.00474951
  -Hartree energ DENC   =      -990.83046898
  -exchange      EXHF   =         0.00000000
  -V(xc)+E(xc)   XCENC  =       132.26608964
  PAW double counting   =      3922.05959193    -4590.03829827
  entropy T*S    EENTRO =        -0.00000000
  eigenvalues    EBANDS =       -92.19325923
  atomic energy  EATOM  =      4826.73260078
  Solvation  Ediel_sol  =         0.00000000
  ---------------------------------------------------
  free energy    TOTEN  =       -22.05150508 eV

  energy without entropy =      -22.05150508  energy(sigma->0) =      -22.05150508


--------------------------------------------------------------------------------------------------------




--------------------------------------- Iteration      1(   7)  ---------------------------------------


    POTLOK:  cpu time      0.0049: real time      0.0091
    SETDIJ:  cpu time      0.0023: real time      0.0023
     EDDAV:  cpu time      5.0228: real time      5.0453
       DOS:  cpu time      0.0015: real time      0.0015
    CHARGE:  cpu time      0.1753: real time      0.1754
    MIXING:  cpu time      0.0006: real time      0.0006
    --------------------------------------------
      LOOP:  cpu time      5.2075: real time      5.2342

 eigenvalue-minimisations  : 25216
 total energy-change (2. order) : 0.5212543E-01  (-0.2782856E-01)
 number of electron      36.0000003 magnetization 
 augmentation part       17.4161337 magnetization 

 Broyden mixing:
  rms(total) = 0.23732E+00    rms(broyden)= 0.23732E+00
  rms(prec ) = 0.32156E+00
  weight for this iteration     100.00

 eigenvalues of (default mixing * dielectric matrix)
  average eigenvalue GAMMA=   1.7314
  1.0407  2.4221

 Free energy of the ion-electron system (eV)
  ---------------------------------------------------
  alpha Z        PSCENC =       245.95698856
  Ewald energy   TEWEN  =     -3476.00474951
  -Hartree energ DENC   =      -989.00355778
  -exchange      EXHF   =         0.00000000
  -V(xc)+E(xc)   XCENC  =       132.23888507
  PAW double counting   =      4235.87392582    -4910.22398595
  entropy T*S    EENTRO =        -0.00000000
  eigenvalues    EBANDS =       -87.56948664
  atomic energy  EATOM  =      4826.73260078
  Solvation  Ediel_sol  =         0.00000000
  ---------------------------------------------------
  free energy    TOTEN  =       -21.99937965 eV

  energy without entropy =      -21.99937965  energy(sigma->0) =      -21.99937965


--------------------------------------------------------------------------------------------------------




--------------------------------------- Iteration      1(   8)  ---------------------------------------


    POTLOK:  cpu time      0.0051: real time      0.0052
    SETDIJ:  cpu time      0.0024: real time      0.0024
     EDDAV:  cpu time     11.0311: real time     11.0835
       DOS:  cpu time      0.0017: real time      0.0017
    CHARGE:  cpu time      0.1307: real time      0.1307
    MIXING:  cpu time      0.0004: real time      0.0004
    --------------------------------------------
      LOOP:  cpu time     11.1716: real time     11.2240

 eigenvalue-minimisations  : 40192
 total energy-change (2. order) : 0.3001801E-01  (-0.4847726E-02)
 number of electron      36.0000003 magnetization 
 augmentation part       17.3982851 magnetization 

 Broyden mixing:
  rms(total) = 0.26290E-01    rms(broyden)= 0.26287E-01
  rms(prec ) = 0.35031E-01
  weight for this iteration     100.00

 eigenvalues of (default mixing * dielectric matrix)
  average eigenvalue GAMMA=   1.5583
  2.2489  1.0439  1.3820

 Free energy of the ion-electron system (eV)
  ---------------------------------------------------
  alpha Z        PSCENC =       245.95698856
  Ewald energy   TEWEN  =     -3476.00474951
  -Hartree energ DENC   =      -983.94346507
  -exchange      EXHF   =         0.00000000
  -V(xc)+E(xc)   XCENC  =       132.05392487
  PAW double counting   =      4725.07813058    -5406.54594585
  entropy T*S    EENTRO =        -0.00000000
  eigenvalues    EBANDS =       -85.29684599
  atomic energy  EATOM  =      4826.73260078
  Solvation  Ediel_sol  =         0.00000000
  ---------------------------------------------------
  free energy    TOTEN  =       -21.96936164 eV

  energy without entropy =      -21.96936164  energy(sigma->0) =      -21.96936164


--------------------------------------------------------------------------------------------------------




--------------------------------------- Iteration      1(   9)  ---------------------------------------


    POTLOK:  cpu time      0.0053: real time      0.0053
    SETDIJ:  cpu time      0.0023: real time      0.0023
     EDDAV:  cpu time      5.9771: real time      6.0580
       DOS:  cpu time      0.0014: real time      0.0014
    CHARGE:  cpu time      0.1598: real time      0.1598
    MIXING:  cpu time      0.0005: real time      0.0005
    --------------------------------------------
      LOOP:  cpu time      6.1463: real time      6.2273

 eigenvalue-minimisations  : 28416
 total energy-change (2. order) : 0.5187345E-03  (-0.5777769E-03)
 number of electron      36.0000003 magnetization 
 augmentation part       17.4033110 magnetization 

 Broyden mixing:
  rms(total) = 0.10414E-01    rms(broyden)= 0.10413E-01
  rms(prec ) = 0.14479E-01
  weight for this iteration     100.00

 eigenvalues of (default mixing * dielectric matrix)
  average eigenvalue GAMMA=   1.7043
  1.0930  1.0930  2.4633  2.1681

 Free energy of the ion-electron system (eV)
  ---------------------------------------------------
  alpha Z        PSCENC =       245.95698856
  Ewald energy   TEWEN  =     -3476.00474951
  -Hartree energ DENC   =      -983.33821363
  -exchange      EXHF   =         0.00000000
  -V(xc)+E(xc)   XCENC  =       132.03181729
  PAW double counting   =      4708.49557985    -5389.05442606
  entropy T*S    EENTRO =        -0.00000000
  eigenvalues    EBANDS =       -86.78844019
  atomic energy  EATOM  =      4826.73260078
  Solvation  Ediel_sol  =         0.00000000
  ---------------------------------------------------
  free energy    TOTEN  =       -21.96884290 eV

  energy without entropy =      -21.96884290  energy(sigma->0) =      -21.96884290


--------------------------------------------------------------------------------------------------------




--------------------------------------- Iteration      1(  10)  ---------------------------------------


    POTLOK:  cpu time      0.0049: real time      0.0049
    SETDIJ:  cpu time      0.0023: real time      0.0023
     EDDAV:  cpu time      6.6369: real time      6.6655
       DOS:  cpu time      0.0017: real time      0.0017
    CHARGE:  cpu time      0.1291: real time      0.1291
    MIXING:  cpu time      0.0006: real time      0.0006
    --------------------------------------------
      LOOP:  cpu time      6.7754: real time      6.8041

 eigenvalue-minimisations  : 30368
 total energy-change (2. order) :-0.9060642E-04  (-0.6714870E-04)
 number of electron      36.0000003 magnetization 
 augmentation part       17.4039931 magnetization 

 Broyden mixing:
  rms(total) = 0.33796E-02    rms(broyden)= 0.33795E-02
  rms(prec ) = 0.52976E-02
  weight for this iteration     100.00

 eigenvalues of (default mixing * dielectric matrix)
  average eigenvalue GAMMA=   1.6759
  2.7094  2.2832  1.0179  1.0179  1.3512

 Free energy of the ion-electron system (eV)
  ---------------------------------------------------
  alpha Z        PSCENC =       245.95698856
  Ewald energy   TEWEN  =     -3476.00474951
  -Hartree energ DENC   =      -983.12035382
  -exchange      EXHF   =         0.00000000
  -V(xc)+E(xc)   XCENC  =       132.01741258
  PAW double counting   =      4716.86546210    -5397.64988564
  entropy T*S    EENTRO =        -0.00000000
  eigenvalues    EBANDS =       -86.76640856
  atomic energy  EATOM  =      4826.73260078
  Solvation  Ediel_sol  =         0.00000000
  ---------------------------------------------------
  free energy    TOTEN  =       -21.96893351 eV

  energy without entropy =      -21.96893351  energy(sigma->0) =      -21.96893351


--------------------------------------------------------------------------------------------------------




--------------------------------------- Iteration      1(  11)  ---------------------------------------


    POTLOK:  cpu time      0.0050: real time      0.0050
    SETDIJ:  cpu time      0.0023: real time      0.0023
     EDDAV:  cpu time      9.3059: real time      9.3486
       DOS:  cpu time      0.0017: real time      0.0017
    CHARGE:  cpu time      0.1269: real time      0.1270
    MIXING:  cpu time      0.0004: real time      0.0004
    --------------------------------------------
      LOOP:  cpu time      9.4423: real time      9.4851

 eigenvalue-minimisations  : 37344
 total energy-change (2. order) :-0.2405432E-06  (-0.8509770E-05)
 number of electron      36.0000003 magnetization 
 augmentation part       17.4032923 magnetization 

 Broyden mixing:
  rms(total) = 0.86345E-03    rms(broyden)= 0.86340E-03
  rms(prec ) = 0.10477E-02
  weight for this iteration     100.00

 eigenvalues of (default mixing * dielectric matrix)
  average eigenvalue GAMMA=   1.6733
  2.7651  2.5455  1.0196  1.0196  1.4696  1.2206

 Free energy of the ion-electron system (eV)
  ---------------------------------------------------
  alpha Z        PSCENC =       245.95698856
  Ewald energy   TEWEN  =     -3476.00474951
  -Hartree energ DENC   =      -983.15759344
  -exchange      EXHF   =         0.00000000
  -V(xc)+E(xc)   XCENC  =       132.02083168
  PAW double counting   =      4716.56366810    -5397.39193637
  entropy T*S    EENTRO =        -0.00000000
  eigenvalues    EBANDS =       -86.68874354
  atomic energy  EATOM  =      4826.73260078
  Solvation  Ediel_sol  =         0.00000000
  ---------------------------------------------------
  free energy    TOTEN  =       -21.96893375 eV

  energy without entropy =      -21.96893375  energy(sigma->0) =      -21.96893375


--------------------------------------------------------------------------------------------------------




--------------------------------------- Iteration      1(  12)  ---------------------------------------


    POTLOK:  cpu time      0.0053: real time      0.0053
    SETDIJ:  cpu time      0.0023: real time      0.0023
     EDDAV:  cpu time      7.6515: real time      7.6842
       DOS:  cpu time      0.0016: real time      0.0016
    CHARGE:  cpu time      0.1279: real time      0.1280
    MIXING:  cpu time      0.0005: real time      0.0005
    --------------------------------------------
      LOOP:  cpu time      7.7890: real time      7.8218

 eigenvalue-minimisations  : 32640
 total energy-change (2. order) :-0.1710732E-06  (-0.2280614E-06)
 number of electron      36.0000003 magnetization 
 augmentation part       17.4033022 magnetization 

 Broyden mixing:
  rms(total) = 0.48551E-03    rms(broyden)= 0.48549E-03
  rms(prec ) = 0.54372E-03
  weight for this iteration     100.00

 eigenvalues of (default mixing * dielectric matrix)
  average eigenvalue GAMMA=   1.6385
  2.7470  2.4996  1.9712  1.3301  1.0031  1.0031  0.9156

 Free energy of the ion-electron system (eV)
  ---------------------------------------------------
  alpha Z        PSCENC =       245.95698856
  Ewald energy   TEWEN  =     -3476.00474951
  -Hartree energ DENC   =      -983.18772882
  -exchange      EXHF   =         0.00000000
  -V(xc)+E(xc)   XCENC  =       132.02187544
  PAW double counting   =      4714.54105852    -5395.34749351
  entropy T*S    EENTRO =        -0.00000000
  eigenvalues    EBANDS =       -86.68148538
  atomic energy  EATOM  =      4826.73260078
  Solvation  Ediel_sol  =         0.00000000
  ---------------------------------------------------
  free energy    TOTEN  =       -21.96893392 eV

  energy without entropy =      -21.96893392  energy(sigma->0) =      -21.96893392


--------------------------------------------------------------------------------------------------------




--------------------------------------- Iteration      1(  13)  ---------------------------------------


    POTLOK:  cpu time      0.0048: real time      0.0048
    SETDIJ:  cpu time      0.0022: real time      0.0022
     EDDAV:  cpu time      7.2685: real time      7.2971
       DOS:  cpu time      0.0016: real time      0.0016
    CHARGE:  cpu time      0.1275: real time      0.1312
    MIXING:  cpu time      0.0004: real time      0.0004
    --------------------------------------------
      LOOP:  cpu time      7.4050: real time      7.4373

 eigenvalue-minimisations  : 31232
 total energy-change (2. order) : 0.1912449E-06  (-0.1044854E-07)
 number of electron      36.0000003 magnetization 
 augmentation part       17.4033227 magnetization 

 Broyden mixing:
  rms(total) = 0.10654E-03    rms(broyden)= 0.10653E-03
  rms(prec ) = 0.12937E-03
  weight for this iteration     100.00

 eigenvalues of (default mixing * dielectric matrix)
  average eigenvalue GAMMA=   1.7097
  2.9285  2.4548  2.3767  0.9910  1.0130  1.0130  1.4504  1.4504

 Free energy of the ion-electron system (eV)
  ---------------------------------------------------
  alpha Z        PSCENC =       245.95698856
  Ewald energy   TEWEN  =     -3476.00474951
  -Hartree energ DENC   =      -983.18503604
  -exchange      EXHF   =         0.00000000
  -V(xc)+E(xc)   XCENC  =       132.02176782
  PAW double counting   =      4714.98720764    -5395.79291017
  entropy T*S    EENTRO =        -0.00000000
  eigenvalues    EBANDS =       -86.68480280
  atomic energy  EATOM  =      4826.73260078
  Solvation  Ediel_sol  =         0.00000000
  ---------------------------------------------------
  free energy    TOTEN  =       -21.96893373 eV

  energy without entropy =      -21.96893373  energy(sigma->0) =      -21.96893373


--------------------------------------------------------------------------------------------------------




--------------------------------------- Iteration      1(  14)  ---------------------------------------


    POTLOK:  cpu time      0.0049: real time      0.0049
    SETDIJ:  cpu time      0.0023: real time      0.0023
     EDDAV:  cpu time      2.4744: real time      2.4819
       DOS:  cpu time      0.0018: real time      0.0018
    --------------------------------------------
      LOOP:  cpu time      2.4834: real time      2.4908

 eigenvalue-minimisations  : 13824
 total energy-change (2. order) : 0.6545270E-07  (-0.2056636E-08)
 number of electron      36.0000003 magnetization 
 augmentation part       17.4033227 magnetization 

 Free energy of the ion-electron system (eV)
  ---------------------------------------------------
  alpha Z        PSCENC =       245.95698856
  Ewald energy   TEWEN  =     -3476.00474951
  -Hartree energ DENC   =      -983.18739208
  -exchange      EXHF   =         0.00000000
  -V(xc)+E(xc)   XCENC  =       132.02185023
  PAW double counting   =      4715.00733956    -5395.81143732
  entropy T*S    EENTRO =        -0.00000000
  eigenvalues    EBANDS =       -86.68413389
  atomic energy  EATOM  =      4826.73260078
  Solvation  Ediel_sol  =         0.00000000
  ---------------------------------------------------
  free energy    TOTEN  =       -21.96893367 eV

  energy without entropy =      -21.96893367  energy(sigma->0) =      -21.96893367


--------------------------------------------------------------------------------------------------------




 average (electrostatic) potential at core
  the test charge radii are     1.0314  0.7089
  (the norm of the test charge is              1.0000)
       1 -61.2079       2 -61.2078       3 -59.3318       4 -59.3318
 
 
 
 E-fermi :   8.5492     XC(G=0): -13.0790     alpha+bet :-16.6801

 Fermi energy:         8.5491564824

 k-point     1 :       0.0000    0.0000    0.0000
  band No.  band energies     occupation 
      1      -9.7662      2.00000
      2      -8.2249      2.00000
      3      -5.9508      2.00000
      4      -5.8961      2.00000
      5      -5.8321      2.00000
      6      -5.6527      2.00000
      7      -5.6379      2.00000
      8      -5.5456      2.00000
      9      -5.5334      2.00000
     10      -5.4289      2.00000
     11      -5.3426      2.00000
     12      -3.7080      2.00000
     13      -0.0808      2.00000
     14       5.0877      2.00000
     15       6.9078      2.00000
     16       7.1044      2.00000
     17       8.0401      2.00000
     18       8.3033      2.00000
     19      11.0027      0.00000
     20      11.3004      0.00000
     21      17.4033      0.00000
     22      19.3096      0.00000
     23      20.7254      0.00000
     24      22.1620      0.00000
     25      22.3363      0.00000
     26      22.3640      0.00000
     27      22.5343      0.00000
     28      25.0780      0.00000
     29      26.1891      0.00000
     30      26.4707      0.00000
     31      28.1243      0.00000
     32      29.8164      0.00000

 k-point     2 :       0.1250   -0.0000    0.0000
  band No.  band energies     occupation 
      1      -9.5457      2.00000
      2      -8.1187      2.00000
      3      -5.9469      2.00000
      4      -5.8762      2.00000
      5      -5.8039      2.00000
      6      -5.6580      2.00000
      7      -5.6472      2.00000
      8      -5.5674      2.00000
      9      -5.5362      2.00000
     10      -5.4580      2.00000
     11      -5.3697      2.00000
     12      -3.6514      2.00000
     13       0.1797      2.00000
     14       4.2466      2.00000
     15       6.2062      2.00000
     16       6.6190      2.00000
     17       7.7660      2.00000
     18       8.0788      2.00000
     19      11.9637      0.00000
     20      12.3150      0.00000
     21      17.6484      0.00000
     22      18.9645      0.00000
     23      19.8199      0.00000
     24      20.9430      0.00000
     25      21.8598      0.00000
     26      22.6347      0.00000
     27      23.2165      0.00000
     28      24.7846      0.00000
     29      26.7648      0.00000
     30      27.7486      0.00000
     31      29.1837      0.00000
     32      30.9946      0.00000

 k-point     3 :       0.2500   -0.0000    0.0000
  band No.  band energies     occupation 
      1      -8.9385      2.00000
      2      -7.8614      2.00000
      3      -5.9447      2.00000
      4      -5.8584      2.00000
      5      -5.7345      2.00000
      6      -5.6802      2.00000
      7      -5.6436      2.00000
      8      -5.6038      2.00000
      9      -5.5556      2.00000
     10      -5.4859      2.00000
     11      -5.3804      2.00000
     12      -3.5942      2.00000
     13       0.8823      2.00000
     14       2.4237      2.00000
     15       4.2671      2.00000
     16       6.6945      2.00000
     17       7.0199      2.00000
     18       8.0808      2.00000
     19      13.4310      0.00000
     20      13.9755      0.00000
     21      17.3444      0.00000
     22      17.7493      0.00000
     23      18.6019      0.00000
     24      19.5484      0.00000
     25      22.6994      0.00000
     26      22.7984      0.00000
     27      23.9573      0.00000
     28      25.7143      0.00000
     29      27.1820      0.00000
     30      27.9675      0.00000
     31      29.9337      0.00000
     32      30.3719      0.00000

 k-point     4 :       0.3750   -0.0000   -0.0000
  band No.  band energies     occupation 
      1      -8.1708      2.00000
      2      -7.6209      2.00000
      3      -5.9169      2.00000
      4      -5.8125      2.00000
      5      -5.7600      2.00000
      6      -5.6952      2.00000
      7      -5.6730      2.00000
      8      -5.6193      2.00000
      9      -5.5250      2.00000
     10      -5.4077      2.00000
     11      -5.2583      2.00000
     12      -3.8646      2.00000
     13       0.8226      2.00000
     14       2.2474      2.00000
     15       2.5243      2.00000
     16       5.6862      2.00000
     17       7.0189      2.00000
     18       8.1289      2.00000
     19      14.6759      0.00000
     20      15.4371      0.00000
     21      16.5007      0.00000
     22      17.0450      0.00000
     23      17.8171      0.00000
     24      18.3552      0.00000
     25      22.6742      0.00000
     26      23.6193      0.00000
     27      23.9997      0.00000
     28      26.2464      0.00000
     29      28.0120      0.00000
     30      28.6173      0.00000
     31      30.0954      0.00000
     32      30.8277      0.00000

 k-point     5 :       0.5000   -0.0000   -0.0000
  band No.  band energies     occupation 
      1      -7.7538      2.00000
      2      -7.5689      2.00000
      3      -5.8991      2.00000
      4      -5.7736      2.00000
      5      -5.7356      2.00000
      6      -5.7168      2.00000
      7      -5.6641      2.00000
      8      -5.6578      2.00000
      9      -5.4984      2.00000
     10      -5.4043      2.00000
     11      -4.7490      2.00000
     12      -4.5507      2.00000
     13       0.8185      2.00000
     14       1.3038      2.00000
     15       3.4174      2.00000
     16       4.5329      2.00000
     17       7.1587      2.00000
     18       8.1387      2.00000
     19      15.3227      0.00000
     20      15.7638      0.00000
     21      16.2931      0.00000
     22      17.2708      0.00000
     23      17.4705      0.00000
     24      17.6746      0.00000
     25      22.2837      0.00000
     26      22.9509      0.00000
     27      25.3283      0.00000
     28      25.5398      0.00000
     29      28.6469      0.00000
     30      28.9003      0.00000
     31      30.4568      0.00000
     32      31.2515      0.00000

 k-point     6 :      -0.3750    0.0000    0.0000
  band No.  band energies     occupation 
      1      -8.1708      2.00000
      2      -7.6209      2.00000
      3      -5.9169      2.00000
      4      -5.8125      2.00000
      5      -5.7600      2.00000
      6      -5.6952      2.00000
      7      -5.6730      2.00000
      8      -5.6193      2.00000
      9      -5.5250      2.00000
     10      -5.4077      2.00000
     11      -5.2583      2.00000
     12      -3.8646      2.00000
     13       0.8226      2.00000
     14       2.2474      2.00000
     15       2.5243      2.00000
     16       5.6862      2.00000
     17       7.0189      2.00000
     18       8.1289      2.00000
     19      14.6759      0.00000
     20      15.4371      0.00000
     21      16.5007      0.00000
     22      17.0450      0.00000
     23      17.8171      0.00000
     24      18.3552      0.00000
     25      22.6742      0.00000
     26      23.6193      0.00000
     27      23.9997      0.00000
     28      26.2464      0.00000
     29      28.0120      0.00000
     30      28.6173      0.00000
     31      30.0954      0.00000
     32      30.8277      0.00000

 k-point     7 :      -0.2500    0.0000   -0.0000
  band No.  band energies     occupation 
      1      -8.9385      2.00000
      2      -7.8614      2.00000
      3      -5.9447      2.00000
      4      -5.8584      2.00000
      5      -5.7345      2.00000
      6      -5.6802      2.00000
      7      -5.6436      2.00000
      8      -5.6038      2.00000
      9      -5.5556      2.00000
     10      -5.4859      2.00000
     11      -5.3804      2.00000
     12      -3.5942      2.00000
     13       0.8823      2.00000
     14       2.4237      2.00000
     15       4.2671      2.00000
     16       6.6945      2.00000
     17       7.0199      2.00000
     18       8.0808      2.00000
     19      13.4310      0.00000
     20      13.9755      0.00000
     21      17.3444      0.00000
     22      17.7493      0.00000
     23      18.6019      0.00000
     24      19.5484      0.00000
     25      22.6994      0.00000
     26      22.7984      0.00000
     27      23.9573      0.00000
     28      25.7143      0.00000
     29      27.1820      0.00000
     30      27.9675      0.00000
     31      29.9337      0.00000
     32      30.3719      0.00000

 k-point     8 :      -0.1250    0.0000    0.0000
  band No.  band energies     occupation 
      1      -9.5457      2.00000
      2      -8.1187      2.00000
      3      -5.9469      2.00000
      4      -5.8762      2.00000
      5      -5.8039      2.00000
      6      -5.6580      2.00000
      7      -5.6472      2.00000
      8      -5.5674      2.00000
      9      -5.5362      2.00000
     10      -5.4580      2.00000
     11      -5.3697      2.00000
     12      -3.6514      2.00000
     13       0.1797      2.00000
     14       4.2466      2.00000
     15       6.2062      2.00000
     16       6.6190      2.00000
     17       7.7660      2.00000
     18       8.0788      2.00000
     19      11.9637      0.00000
     20      12.3150      0.00000
     21      17.6484      0.00000
     22      18.9645      0.00000
     23      19.8199      0.00000
     24      20.9430      0.00000
     25      21.8598      0.00000
     26      22.6347      0.00000
     27      23.2165      0.00000
     28      24.7846      0.00000
     29      26.7648      0.00000
     30      27.7486      0.00000
     31      29.1837      0.00000
     32      30.9946      0.00000

 k-point     9 :      -0.0000    0.1250    0.0000
  band No.  band energies     occupation 
      1      -9.5457      2.00000
      2      -8.1187      2.00000
      3      -5.9469      2.00000
      4      -5.8762      2.00000
      5      -5.8039      2.00000
      6      -5.6580      2.00000
      7      -5.6472      2.00000
      8      -5.5674      2.00000
      9      -5.5362      2.00000
     10      -5.4580      2.00000
     11      -5.3697      2.00000
     12      -3.6514      2.00000
     13       0.1797      2.00000
     14       4.2466      2.00000
     15       6.2062      2.00000
     16       6.6190      2.00000
     17       7.7660      2.00000
     18       8.0788      2.00000
     19      11.9637      0.00000
     20      12.3150      0.00000
     21      17.6484      0.00000
     22      18.9645      0.00000
     23      19.8199      0.00000
     24      20.9430      0.00000
     25      21.8598      0.00000
     26      22.6347      0.00000
     27      23.2165      0.00000
     28      24.7846      0.00000
     29      26.7648      0.00000
     30      27.7486      0.00000
     31      29.1837      0.00000
     32      30.9946      0.00000

 k-point    10 :       0.1250    0.1250    0.0000
  band No.  band energies     occupation 
      1      -9.2307      2.00000
      2      -7.9667      2.00000
      3      -5.9315      2.00000
      4      -5.8249      2.00000
      5      -5.8187      2.00000
      6      -5.6744      2.00000
      7      -5.6451      2.00000
      8      -5.5625      2.00000
      9      -5.5556      2.00000
     10      -5.4633      2.00000
     11      -5.4302      2.00000
     12      -3.6509      2.00000
     13       0.5328      2.00000
     14       3.5894      2.00000
     15       5.3258      2.00000
     16       5.6500      2.00000
     17       7.3840      2.00000
     18       7.6523      2.00000
     19      13.0184      0.00000
     20      13.7968      0.00000
     21      17.8158      0.00000
     22      18.4688      0.00000
     23      19.3130      0.00000
     24      19.9860      0.00000
     25      21.8239      0.00000
     26      23.0708      0.00000
     27      25.3162      0.00000
     28      25.4358      0.00000
     29      27.4682      0.00000
     30      28.6539      0.00000
     31      28.9370      0.00000
     32      30.9444      0.00000

 k-point    11 :       0.2500    0.1250   -0.0000
  band No.  band energies     occupation 
      1      -8.5937      2.00000
      2      -7.7337      2.00000
      3      -5.8681      2.00000
      4      -5.7963      2.00000
      5      -5.7503      2.00000
      6      -5.6960      2.00000
      7      -5.6527      2.00000
      8      -5.5845      2.00000
      9      -5.5814      2.00000
     10      -5.4948      2.00000
     11      -5.4213      2.00000
     12      -3.6383      2.00000
     13       1.1963      2.00000
     14       2.4472      2.00000
     15       3.8451      2.00000
     16       5.1458      2.00000
     17       6.5657      2.00000
     18       7.2710      2.00000
     19      14.3207      0.00000
     20      15.4156      0.00000
     21      16.9550      0.00000
     22      18.0707      0.00000
     23      18.4695      0.00000
     24      20.2455      0.00000
     25      21.4305      0.00000
     26      23.1415      0.00000
     27      23.8287      0.00000
     28      26.1859      0.00000
     29      27.7043      0.00000
     30      29.2855      0.00000
     31      31.6650      0.00000
     32      32.7140      0.00000

 k-point    12 :       0.3750    0.1250   -0.0000
  band No.  band energies     occupation 
      1      -7.9451      2.00000
      2      -7.5929      2.00000
      3      -5.8811      2.00000
      4      -5.7619      2.00000
      5      -5.7472      2.00000
      6      -5.6917      2.00000
      7      -5.6490      2.00000
      8      -5.5954      2.00000
      9      -5.5191      2.00000
     10      -5.4149      2.00000
     11      -5.1704      2.00000
     12      -3.8892      2.00000
     13       0.9619      2.00000
     14       2.2048      2.00000
     15       2.9032      2.00000
     16       5.3123      2.00000
     17       5.5383      2.00000
     18       7.3196      2.00000
     19      15.0557      0.00000
     20      15.8263      0.00000
     21      16.4864      0.00000
     22      17.5160      0.00000
     23      17.7497      0.00000
     24      19.3589      0.00000
     25      21.7147      0.00000
     26      22.1886      0.00000
     27      23.4893      0.00000
     28      27.5071      0.00000
     29      29.3550      0.00000
     30      30.1731      0.00000
     31      30.7560      0.00000
     32      31.3635      0.00000

 k-point    13 :       0.5000    0.1250   -0.0000
  band No.  band energies     occupation 
      1      -7.7919      2.00000
      2      -7.6112      2.00000
      3      -5.8902      2.00000
      4      -5.8235      2.00000
      5      -5.7950      2.00000
      6      -5.7131      2.00000
      7      -5.5965      2.00000
      8      -5.5860      2.00000
      9      -5.4783      2.00000
     10      -5.4027      2.00000
     11      -4.6145      2.00000
     12      -4.2160      2.00000
     13       0.9414      2.00000
     14       1.5330      2.00000
     15       3.4622      2.00000
     16       4.6664      2.00000
     17       6.2388      2.00000
     18       7.4374      2.00000
     19      15.0770      0.00000
     20      15.6869      0.00000
     21      16.2356      0.00000
     22      16.8023      0.00000
     23      17.2413      0.00000
     24      17.6055      0.00000
     25      22.2373      0.00000
     26      23.0646      0.00000
     27      24.4147      0.00000
     28      26.8030      0.00000
     29      28.1666      0.00000
     30      29.7490      0.00000
     31      30.8460      0.00000
     32      32.1009      0.00000

 k-point    14 :      -0.3750    0.1250   -0.0000
  band No.  band energies     occupation 
      1      -8.2936      2.00000
      2      -7.7020      2.00000
      3      -5.9144      2.00000
      4      -5.8266      2.00000
      5      -5.8144      2.00000
      6      -5.6994      2.00000
      7      -5.6211      2.00000
      8      -5.5602      2.00000
      9      -5.5141      2.00000
     10      -5.4001      2.00000
     11      -5.1558      2.00000
     12      -3.4736      2.00000
     13       1.0944      2.00000
     14       2.2671      2.00000
     15       2.8698      2.00000
     16       5.9108      2.00000
     17       6.7576      2.00000
     18       7.3977      2.00000
     19      14.4320      0.00000
     20      14.5658      0.00000
     21      16.4122      0.00000
     22      16.9853      0.00000
     23      17.1496      0.00000
     24      17.6243      0.00000
     25      22.4562      0.00000
     26      23.3755      0.00000
     27      24.8882      0.00000
     28      25.7653      0.00000
     29      26.8691      0.00000
     30      29.2781      0.00000
     31      29.9803      0.00000
     32      32.4605      0.00000

 k-point    15 :      -0.2500    0.1250    0.0000
  band No.  band energies     occupation 
      1      -8.9682      2.00000
      2      -7.9157      2.00000
      3      -5.9093      2.00000
      4      -5.8286      2.00000
      5      -5.7419      2.00000
      6      -5.6878      2.00000
      7      -5.6617      2.00000
      8      -5.5889      2.00000
      9      -5.5359      2.00000
     10      -5.4832      2.00000
     11      -5.3466      2.00000
     12      -3.3788      2.00000
     13       0.9401      2.00000
     14       2.9314      2.00000
     15       4.7864      2.00000
     16       6.2427      2.00000
     17       6.9054      2.00000
     18       7.5560      2.00000
     19      13.3391      0.00000
     20      13.5889      0.00000
     21      17.5104      0.00000
     22      17.7853      0.00000
     23      18.1993      0.00000
     24      18.5905      0.00000
     25      21.1656      0.00000
     26      21.9192      0.00000
     27      24.0880      0.00000
     28      25.3094      0.00000
     29      27.5020      0.00000
     30      28.7256      0.00000
     31      29.1454      0.00000
     32      32.6735      0.00000

 k-point    16 :      -0.1250    0.1250    0.0000
  band No.  band energies     occupation 
      1      -9.4460      2.00000
      2      -8.0944      2.00000
      3      -5.9004      2.00000
      4      -5.8701      2.00000
      5      -5.7701      2.00000
      6      -5.6703      2.00000
      7      -5.6596      2.00000
      8      -5.5925      2.00000
      9      -5.5436      2.00000
     10      -5.4928      2.00000
     11      -5.3441      2.00000
     12      -3.5414      2.00000
     13       0.3269      2.00000
     14       4.4821      2.00000
     15       6.0124      2.00000
     16       6.7071      2.00000
     17       6.8873      2.00000
     18       7.8327      2.00000
     19      12.3249      0.00000
     20      12.6656      0.00000
     21      18.2399      0.00000
     22      18.6253      0.00000
     23      20.1451      0.00000
     24      20.1588      0.00000
     25      20.4266      0.00000
     26      20.8301      0.00000
     27      23.1233      0.00000
     28      24.3648      0.00000
     29      28.1668      0.00000
     30      28.5111      0.00000
     31      29.0906      0.00000
     32      30.1020      0.00000

 k-point    17 :      -0.0000    0.2500    0.0000
  band No.  band energies     occupation 
      1      -8.9385      2.00000
      2      -7.8614      2.00000
      3      -5.9447      2.00000
      4      -5.8584      2.00000
      5      -5.7345      2.00000
      6      -5.6802      2.00000
      7      -5.6436      2.00000
      8      -5.6038      2.00000
      9      -5.5556      2.00000
     10      -5.4859      2.00000
     11      -5.3804      2.00000
     12      -3.5942      2.00000
     13       0.8823      2.00000
     14       2.4237      2.00000
     15       4.2671      2.00000
     16       6.6945      2.00000
     17       7.0199      2.00000
     18       8.0808      2.00000
     19      13.4310      0.00000
     20      13.9755      0.00000
     21      17.3444      0.00000
     22      17.7493      0.00000
     23      18.6019      0.00000
     24      19.5484      0.00000
     25      22.6994      0.00000
     26      22.7984      0.00000
     27      23.9573      0.00000
     28      25.7143      0.00000
     29      27.1820      0.00000
     30      27.9675      0.00000
     31      29.9337      0.00000
     32      30.3719      0.00000

 k-point    18 :       0.1250    0.2500   -0.0000
  band No.  band energies     occupation 
      1      -8.5937      2.00000
      2      -7.7337      2.00000
      3      -5.8681      2.00000
      4      -5.7963      2.00000
      5      -5.7503      2.00000
      6      -5.6960      2.00000
      7      -5.6527      2.00000
      8      -5.5845      2.00000
      9      -5.5814      2.00000
     10      -5.4948      2.00000
     11      -5.4213      2.00000
     12      -3.6383      2.00000
     13       1.1963      2.00000
     14       2.4472      2.00000
     15       3.8451      2.00000
     16       5.1458      2.00000
     17       6.5657      2.00000
     18       7.2710      2.00000
     19      14.3207      0.00000
     20      15.4156      0.00000
     21      16.9550      0.00000
     22      18.0707      0.00000
     23      18.4695      0.00000
     24      20.2455      0.00000
     25      21.4305      0.00000
     26      23.1415      0.00000
     27      23.8287      0.00000
     28      26.1859      0.00000
     29      27.7043      0.00000
     30      29.2855      0.00000
     31      31.6650      0.00000
     32      32.7140      0.00000

 k-point    19 :       0.2500    0.2500   -0.0000
  band No.  band energies     occupation 
      1      -8.1015      2.00000
      2      -7.6342      2.00000
      3      -5.8722      2.00000
      4      -5.7464      2.00000
      5      -5.7020      2.00000
      6      -5.6547      2.00000
      7      -5.6140      2.00000
      8      -5.6021      2.00000
      9      -5.5182      2.00000
     10      -5.4369      2.00000
     11      -5.3610      2.00000
     12      -3.5294      2.00000
     13       1.6513      2.00000
     14       3.1298      2.00000
     15       3.1953      2.00000
     16       3.3562      2.00000
     17       5.9450      2.00000
     18       6.0854      2.00000
     19      15.0384      0.00000
     20      15.4471      0.00000
     21      16.4223      0.00000
     22      17.9443      0.00000
     23      18.6323      0.00000
     24      20.1318      0.00000
     25      21.2734      0.00000
     26      22.1177      0.00000
     27      23.1867      0.00000
     28      26.9248      0.00000
     29      30.3719      0.00000
     30      30.4258      0.00000
     31      31.5618      0.00000
     32      32.8655      0.00000

 k-point    20 :       0.3750    0.2500   -0.0000
  band No.  band energies     occupation 
      1      -7.7799      2.00000
      2      -7.6642      2.00000
      3      -5.9335      2.00000
      4      -5.8342      2.00000
      5      -5.6908      2.00000
      6      -5.6400      2.00000
      7      -5.5728      2.00000
      8      -5.5302      2.00000
      9      -5.4579      2.00000
     10      -5.4180      2.00000
     11      -4.5817      2.00000
     12      -3.5692      2.00000
     13       1.4680      2.00000
     14       2.2830      2.00000
     15       3.0320      2.00000
     16       4.2983      2.00000
     17       4.9927      2.00000
     18       5.8152      2.00000
     19      14.1581      0.00000
     20      14.6868      0.00000
     21      15.3355      0.00000
     22      17.2884      0.00000
     23      18.6565      0.00000
     24      19.7208      0.00000
     25      21.5344      0.00000
     26      22.5104      0.00000
     27      24.1822      0.00000
     28      27.7279      0.00000
     29      28.7028      0.00000
     30      29.6842      0.00000
     31      32.5832      0.00000
     32      32.8117      0.00000

 k-point    21 :       0.5000    0.2500    0.0000
  band No.  band energies     occupation 
      1      -7.8910      2.00000
      2      -7.7034      2.00000
      3      -5.9475      2.00000
      4      -5.8921      2.00000
      5      -5.6754      2.00000
      6      -5.6544      2.00000
      7      -5.5743      2.00000
      8      -5.4970      2.00000
      9      -5.4193      2.00000
     10      -5.3844      2.00000
     11      -4.2102      2.00000
     12      -3.4287      2.00000
     13       1.3022      2.00000
     14       1.9390      2.00000
     15       3.5830      2.00000
     16       4.1639      2.00000
     17       5.6213      2.00000
     18       6.0718      2.00000
     19      12.6846      0.00000
     20      13.5803      0.00000
     21      14.9714      0.00000
     22      16.8099      0.00000
     23      18.3179      0.00000
     24      19.6106      0.00000
     25      22.4822      0.00000
     26      22.7432      0.00000
     27      24.3138      0.00000
     28      26.4276      0.00000
     29      28.2303      0.00000
     30      30.4193      0.00000
     31      32.7139      0.00000
     32      33.6524      0.00000

 k-point    22 :      -0.3750    0.2500    0.0000
  band No.  band energies     occupation 
      1      -8.2678      2.00000
      2      -7.7766      2.00000
      3      -5.9149      2.00000
      4      -5.8829      2.00000
      5      -5.6935      2.00000
      6      -5.6549      2.00000
      7      -5.5842      2.00000
      8      -5.5146      2.00000
      9      -5.4572      2.00000
     10      -5.3664      2.00000
     11      -4.9131      2.00000
     12      -2.9012      2.00000
     13       1.7161      2.00000
     14       2.5469      2.00000
     15       3.1309      2.00000
     16       5.1170      2.00000
     17       5.6029      2.00000
     18       6.8927      2.00000
     19      12.2087      0.00000
     20      12.7242      0.00000
     21      15.7734      0.00000
     22      16.8753      0.00000
     23      17.8677      0.00000
     24      19.6076      0.00000
     25      21.8930      0.00000
     26      22.2178      0.00000
     27      24.5640      0.00000
     28      26.0428      0.00000
     29      27.1422      0.00000
     30      30.7396      0.00000
     31      32.6649      0.00000
     32      33.5658      0.00000

 k-point    23 :      -0.2500    0.2500    0.0000
  band No.  band energies     occupation 
      1      -8.6957      2.00000
      2      -7.8724      2.00000
      3      -5.8732      2.00000
      4      -5.8235      2.00000
      5      -5.7471      2.00000
      6      -5.6366      2.00000
      7      -5.6161      2.00000
      8      -5.5625      2.00000
      9      -5.5585      2.00000
     10      -5.3488      2.00000
     11      -5.3450      2.00000
     12      -3.0690      2.00000
     13       1.4241      2.00000
     14       3.2239      2.00000
     15       4.5791      2.00000
     16       5.0551      2.00000
     17       5.8254      2.00000
     18       7.3534      2.00000
     19      12.8284      0.00000
     20      13.0526      0.00000
     21      16.8341      0.00000
     22      17.6375      0.00000
     23      17.6487      0.00000
     24      19.7457      0.00000
     25      20.4308      0.00000
     26      21.0081      0.00000
     27      25.1953      0.00000
     28      25.6446      0.00000
     29      26.0140      0.00000
     30      29.9308      0.00000
     31      32.6586      0.00000
     32      33.2179      0.00000

 k-point    24 :      -0.1250    0.2500   -0.0000
  band No.  band energies     occupation 
      1      -8.9682      2.00000
      2      -7.9157      2.00000
      3      -5.9093      2.00000
      4      -5.8286      2.00000
      5      -5.7419      2.00000
      6      -5.6878      2.00000
      7      -5.6617      2.00000
      8      -5.5889      2.00000
      9      -5.5359      2.00000
     10      -5.4832      2.00000
     11      -5.3466      2.00000
     12      -3.3788      2.00000
     13       0.9401      2.00000
     14       2.9314      2.00000
     15       4.7864      2.00000
     16       6.2427      2.00000
     17       6.9054      2.00000
     18       7.5560      2.00000
     19      13.3391      0.00000
     20      13.5889      0.00000
     21      17.5104      0.00000
     22      17.7853      0.00000
     23      18.1993      0.00000
     24      18.5905      0.00000
     25      21.1656      0.00000
     26      21.9192      0.00000
     27      24.0880      0.00000
     28      25.3094      0.00000
     29      27.5020      0.00000
     30      28.7256      0.00000
     31      29.1454      0.00000
     32      32.6735      0.00000

 k-point    25 :      -0.0000    0.3750   -0.0000
  band No.  band energies     occupation 
      1      -8.1708      2.00000
      2      -7.6209      2.00000
      3      -5.9169      2.00000
      4      -5.8125      2.00000
      5      -5.7600      2.00000
      6      -5.6952      2.00000
      7      -5.6730      2.00000
      8      -5.6193      2.00000
      9      -5.5250      2.00000
     10      -5.4077      2.00000
     11      -5.2583      2.00000
     12      -3.8646      2.00000
     13       0.8226      2.00000
     14       2.2474      2.00000
     15       2.5243      2.00000
     16       5.6862      2.00000
     17       7.0189      2.00000
     18       8.1289      2.00000
     19      14.6759      0.00000
     20      15.4371      0.00000
     21      16.5007      0.00000
     22      17.0450      0.00000
     23      17.8171      0.00000
     24      18.3552      0.00000
     25      22.6742      0.00000
     26      23.6193      0.00000
     27      23.9997      0.00000
     28      26.2464      0.00000
     29      28.0120      0.00000
     30      28.6173      0.00000
     31      30.0954      0.00000
     32      30.8277      0.00000

 k-point    26 :       0.1250    0.3750   -0.0000
  band No.  band energies     occupation 
      1      -7.9451      2.00000
      2      -7.5929      2.00000
      3      -5.8811      2.00000
      4      -5.7619      2.00000
      5      -5.7472      2.00000
      6      -5.6917      2.00000
      7      -5.6490      2.00000
      8      -5.5954      2.00000
      9      -5.5191      2.00000
     10      -5.4149      2.00000
     11      -5.1704      2.00000
     12      -3.8892      2.00000
     13       0.9619      2.00000
     14       2.2048      2.00000
     15       2.9032      2.00000
     16       5.3123      2.00000
     17       5.5383      2.00000
     18       7.3196      2.00000
     19      15.0557      0.00000
     20      15.8263      0.00000
     21      16.4864      0.00000
     22      17.5160      0.00000
     23      17.7497      0.00000
     24      19.3589      0.00000
     25      21.7147      0.00000
     26      22.1886      0.00000
     27      23.4893      0.00000
     28      27.5071      0.00000
     29      29.3550      0.00000
     30      30.1731      0.00000
     31      30.7560      0.00000
     32      31.3635      0.00000

 k-point    27 :       0.2500    0.3750   -0.0000
  band No.  band energies     occupation 
      1      -7.7799      2.00000
      2      -7.6642      2.00000
      3      -5.9335      2.00000
      4      -5.8342      2.00000
      5      -5.6908      2.00000
      6      -5.6400      2.00000
      7      -5.5728      2.00000
      8      -5.5302      2.00000
      9      -5.4579      2.00000
     10      -5.4180      2.00000
     11      -4.5817      2.00000
     12      -3.5692      2.00000
     13       1.4680      2.00000
     14       2.2830      2.00000
     15       3.0320      2.00000
     16       4.2983      2.00000
     17       4.9927      2.00000
     18       5.8152      2.00000
     19      14.1581      0.00000
     20      14.6868      0.00000
     21      15.3355      0.00000
     22      17.2884      0.00000
     23      18.6565      0.00000
     24      19.7208      0.00000
     25      21.5344      0.00000
     26      22.5104      0.00000
     27      24.1822      0.00000
     28      27.7279      0.00000
     29      28.7028      0.00000
     30      29.6842      0.00000
     31      32.5832      0.00000
     32      32.8117      0.00000

 k-point    28 :       0.3750    0.3750    0.0000
  band No.  band energies     occupation 
      1      -7.8155      2.00000
      2      -7.7535      2.00000
      3      -5.9706      2.00000
      4      -5.9094      2.00000
      5      -5.6618      2.00000
      6      -5.5922      2.00000
      7      -5.5397      2.00000
      8      -5.4541      2.00000
      9      -5.3827      2.00000
     10      -5.3612      2.00000
     11      -3.5622      2.00000
     12      -3.2623      2.00000
     13       1.3458      2.00000
     14       2.1389      2.00000
     15       2.8827      2.00000
     16       4.6282      2.00000
     17       4.7213      2.00000
     18       5.2865      2.00000
     19      11.9496      0.00000
     20      13.0074      0.00000
     21      13.9331      0.00000
     22      16.7003      0.00000
     23      19.4228      0.00000
     24      20.7077      0.00000
     25      22.1176      0.00000
     26      23.1973      0.00000
     27      24.3285      0.00000
     28      27.0845      0.00000
     29      28.8505      0.00000
     30      30.1089      0.00000
     31      31.5197      0.00000
     32      34.2479      0.00000

 k-point    29 :       0.5000    0.3750    0.0000
  band No.  band energies     occupation 
      1      -7.9874      2.00000
      2      -7.7912      2.00000
      3      -5.9648      2.00000
      4      -5.9471      2.00000
      5      -5.6325      2.00000
      6      -5.6133      2.00000
      7      -5.5287      2.00000
      8      -5.4375      2.00000
      9      -5.3148      2.00000
     10      -5.3068      2.00000
     11      -3.5932      2.00000
     12      -2.5849      2.00000
     13       1.2992      2.00000
     14       1.7798      2.00000
     15       3.6460      2.00000
     16       4.1837      2.00000
     17       4.7672      2.00000
     18       6.3145      2.00000
     19      10.3259      0.00000
     20      11.3889      0.00000
     21      13.8500      0.00000
     22      16.2354      0.00000
     23      19.4161      0.00000
     24      21.5055      0.00000
     25      22.2786      0.00000
     26      22.7541      0.00000
     27      24.1614      0.00000
     28      27.8245      0.00000
     29      28.1141      0.00000
     30      31.2905      0.00000
     31      31.5254      0.00000
     32      33.6165      0.00000

 k-point    30 :      -0.3750    0.3750    0.0000
  band No.  band energies     occupation 
      1      -8.1475      2.00000
      2      -7.8087      2.00000
      3      -5.9372      2.00000
      4      -5.9313      2.00000
      5      -5.6577      2.00000
      6      -5.6152      2.00000
      7      -5.5394      2.00000
      8      -5.4520      2.00000
      9      -5.3688      2.00000
     10      -5.3052      2.00000
     11      -4.3542      2.00000
     12      -2.4200      2.00000
     13       2.1264      2.00000
     14       2.2658      2.00000
     15       2.8168      2.00000
     16       4.6159      2.00000
     17       5.0176      2.00000
     18       6.8378      2.00000
     19      10.4720      0.00000
     20      11.2032      0.00000
     21      14.6359      0.00000
     22      16.3430      0.00000
     23      18.8058      0.00000
     24      21.4917      0.00000
     25      21.7772      0.00000
     26      22.3245      0.00000
     27      24.0925      0.00000
     28      27.4607      0.00000
     29      27.5120      0.00000
     30      32.1597      0.00000
     31      32.3907      0.00000
     32      32.8364      0.00000

 k-point    31 :      -0.2500    0.3750   -0.0000
  band No.  band energies     occupation 
      1      -8.2678      2.00000
      2      -7.7766      2.00000
      3      -5.9149      2.00000
      4      -5.8829      2.00000
      5      -5.6935      2.00000
      6      -5.6549      2.00000
      7      -5.5842      2.00000
      8      -5.5146      2.00000
      9      -5.4572      2.00000
     10      -5.3664      2.00000
     11      -4.9131      2.00000
     12      -2.9012      2.00000
     13       1.7161      2.00000
     14       2.5469      2.00000
     15       3.1309      2.00000
     16       5.1170      2.00000
     17       5.6029      2.00000
     18       6.8927      2.00000
     19      12.2087      0.00000
     20      12.7242      0.00000
     21      15.7734      0.00000
     22      16.8753      0.00000
     23      17.8677      0.00000
     24      19.6076      0.00000
     25      21.8930      0.00000
     26      22.2178      0.00000
     27      24.5640      0.00000
     28      26.0428      0.00000
     29      27.1422      0.00000
     30      30.7396      0.00000
     31      32.6649      0.00000
     32      33.5658      0.00000

 k-point    32 :      -0.1250    0.3750    0.0000
  band No.  band energies     occupation 
      1      -8.2936      2.00000
      2      -7.7020      2.00000
      3      -5.9144      2.00000
      4      -5.8266      2.00000
      5      -5.8144      2.00000
      6      -5.6994      2.00000
      7      -5.6211      2.00000
      8      -5.5602      2.00000
      9      -5.5141      2.00000
     10      -5.4001      2.00000
     11      -5.1558      2.00000
     12      -3.4736      2.00000
     13       1.0944      2.00000
     14       2.2671      2.00000
     15       2.8698      2.00000
     16       5.9108      2.00000
     17       6.7576      2.00000
     18       7.3977      2.00000
     19      14.4320      0.00000
     20      14.5658      0.00000
     21      16.4122      0.00000
     22      16.9853      0.00000
     23      17.1496      0.00000
     24      17.6243      0.00000
     25      22.4562      0.00000
     26      23.3755      0.00000
     27      24.8882      0.00000
     28      25.7653      0.00000
     29      26.8691      0.00000
     30      29.2781      0.00000
     31      29.9803      0.00000
     32      32.4605      0.00000

 k-point    33 :      -0.0000    0.5000   -0.0000
  band No.  band energies     occupation 
      1      -7.7538      2.00000
      2      -7.5689      2.00000
      3      -5.8991      2.00000
      4      -5.7736      2.00000
      5      -5.7356      2.00000
      6      -5.7168      2.00000
      7      -5.6641      2.00000
      8      -5.6578      2.00000
      9      -5.4984      2.00000
     10      -5.4043      2.00000
     11      -4.7490      2.00000
     12      -4.5507      2.00000
     13       0.8185      2.00000
     14       1.3038      2.00000
     15       3.4174      2.00000
     16       4.5329      2.00000
     17       7.1587      2.00000
     18       8.1387      2.00000
     19      15.3227      0.00000
     20      15.7638      0.00000
     21      16.2931      0.00000
     22      17.2708      0.00000
     23      17.4705      0.00000
     24      17.6746      0.00000
     25      22.2837      0.00000
     26      22.9509      0.00000
     27      25.3283      0.00000
     28      25.5398      0.00000
     29      28.6469      0.00000
     30      28.9003      0.00000
     31      30.4568      0.00000
     32      31.2515      0.00000

 k-point    34 :       0.1250    0.5000   -0.0000
  band No.  band energies     occupation 
      1      -7.7919      2.00000
      2      -7.6112      2.00000
      3      -5.8902      2.00000
      4      -5.8235      2.00000
      5      -5.7950      2.00000
      6      -5.7131      2.00000
      7      -5.5965      2.00000
      8      -5.5860      2.00000
      9      -5.4783      2.00000
     10      -5.4027      2.00000
     11      -4.6145      2.00000
     12      -4.2160      2.00000
     13       0.9414      2.00000
     14       1.5330      2.00000
     15       3.4622      2.00000
     16       4.6664      2.00000
     17       6.2388      2.00000
     18       7.4374      2.00000
     19      15.0770      0.00000
     20      15.6869      0.00000
     21      16.2356      0.00000
     22      16.8023      0.00000
     23      17.2413      0.00000
     24      17.6055      0.00000
     25      22.2373      0.00000
     26      23.0646      0.00000
     27      24.4147      0.00000
     28      26.8030      0.00000
     29      28.1666      0.00000
     30      29.7490      0.00000
     31      30.8460      0.00000
     32      32.1009      0.00000

 k-point    35 :       0.2500    0.5000    0.0000
  band No.  band energies     occupation 
      1      -7.8910      2.00000
      2      -7.7034      2.00000
      3      -5.9475      2.00000
      4      -5.8921      2.00000
      5      -5.6754      2.00000
      6      -5.6544      2.00000
      7      -5.5743      2.00000
      8      -5.4970      2.00000
      9      -5.4193      2.00000
     10      -5.3844      2.00000
     11      -4.2102      2.00000
     12      -3.4287      2.00000
     13       1.3022      2.00000
     14       1.9390      2.00000
     15       3.5830      2.00000
     16       4.1639      2.00000
     17       5.6213      2.00000
     18       6.0718      2.00000
     19      12.6846      0.00000
     20      13.5803      0.00000
     21      14.9714      0.00000
     22      16.8099      0.00000
     23      18.3179      0.00000
     24      19.6106      0.00000
     25      22.4822      0.00000
     26      22.7432      0.00000
     27      24.3138      0.00000
     28      26.4276      0.00000
     29      28.2303      0.00000
     30      30.4193      0.00000
     31      32.7139      0.00000
     32      33.6524      0.00000

 k-point    36 :       0.3750    0.5000    0.0000
  band No.  band energies     occupation 
      1      -7.9874      2.00000
      2      -7.7912      2.00000
      3      -5.9648      2.00000
      4      -5.9471      2.00000
      5      -5.6325      2.00000
      6      -5.6133      2.00000
      7      -5.5287      2.00000
      8      -5.4375      2.00000
      9      -5.3148      2.00000
     10      -5.3068      2.00000
     11      -3.5932      2.00000
     12      -2.5849      2.00000
     13       1.2992      2.00000
     14       1.7798      2.00000
     15       3.6460      2.00000
     16       4.1837      2.00000
     17       4.7672      2.00000
     18       6.3145      2.00000
     19      10.3259      0.00000
     20      11.3889      0.00000
     21      13.8500      0.00000
     22      16.2354      0.00000
     23      19.4161      0.00000
     24      21.5055      0.00000
     25      22.2786      0.00000
     26      22.7541      0.00000
     27      24.1614      0.00000
     28      27.8245      0.00000
     29      28.1141      0.00000
     30      31.2905      0.00000
     31      31.5254      0.00000
     32      33.6165      0.00000

 k-point    37 :       0.5000    0.5000    0.0000
  band No.  band energies     occupation 
      1      -8.0250      2.00000
      2      -7.8273      2.00000
      3      -5.9769      2.00000
      4      -5.9610      2.00000
      5      -5.6145      2.00000
      6      -5.6125      2.00000
      7      -5.5152      2.00000
      8      -5.4249      2.00000
      9      -5.2640      2.00000
     10      -5.2483      2.00000
     11      -3.1707      2.00000
     12      -2.2455      2.00000
     13       0.8411      2.00000
     14       1.6965      2.00000
     15       3.8761      2.00000
     16       4.2988      2.00000
     17       4.6971      2.00000
     18       6.5545      2.00000
     19       9.3207      0.00000
     20      10.3797      0.00000
     21      13.4223      0.00000
     22      15.8979      0.00000
     23      19.8111      0.00000
     24      21.9803      0.00000
     25      22.2020      0.00000
     26      22.6802      0.00000
     27      24.6405      0.00000
     28      28.0584      0.00000
     29      28.5590      0.00000
     30      30.9955      0.00000
     31      31.7398      0.00000
     32      32.7886      0.00000

 k-point    38 :      -0.3750    0.5000   -0.0000
  band No.  band energies     occupation 
      1      -7.9874      2.00000
      2      -7.7912      2.00000
      3      -5.9648      2.00000
      4      -5.9471      2.00000
      5      -5.6325      2.00000
      6      -5.6133      2.00000
      7      -5.5287      2.00000
      8      -5.4375      2.00000
      9      -5.3148      2.00000
     10      -5.3068      2.00000
     11      -3.5932      2.00000
     12      -2.5849      2.00000
     13       1.2992      2.00000
     14       1.7798      2.00000
     15       3.6460      2.00000
     16       4.1837      2.00000
     17       4.7672      2.00000
     18       6.3145      2.00000
     19      10.3259      0.00000
     20      11.3889      0.00000
     21      13.8500      0.00000
     22      16.2354      0.00000
     23      19.4161      0.00000
     24      21.5055      0.00000
     25      22.2786      0.00000
     26      22.7541      0.00000
     27      24.1614      0.00000
     28      27.8245      0.00000
     29      28.1141      0.00000
     30      31.2905      0.00000
     31      31.5254      0.00000
     32      33.6165      0.00000

 k-point    39 :      -0.2500    0.5000    0.0000
  band No.  band energies     occupation 
      1      -7.8910      2.00000
      2      -7.7034      2.00000
      3      -5.9475      2.00000
      4      -5.8921      2.00000
      5      -5.6754      2.00000
      6      -5.6544      2.00000
      7      -5.5743      2.00000
      8      -5.4970      2.00000
      9      -5.4193      2.00000
     10      -5.3844      2.00000
     11      -4.2102      2.00000
     12      -3.4287      2.00000
     13       1.3022      2.00000
     14       1.9390      2.00000
     15       3.5830      2.00000
     16       4.1639      2.00000
     17       5.6213      2.00000
     18       6.0718      2.00000
     19      12.6846      0.00000
     20      13.5803      0.00000
     21      14.9714      0.00000
     22      16.8099      0.00000
     23      18.3179      0.00000
     24      19.6106      0.00000
     25      22.4822      0.00000
     26      22.7432      0.00000
     27      24.3138      0.00000
     28      26.4276      0.00000
     29      28.2303      0.00000
     30      30.4193      0.00000
     31      32.7139      0.00000
     32      33.6524      0.00000

 k-point    40 :      -0.1250    0.5000   -0.0000
  band No.  band energies     occupation 
      1      -7.7919      2.00000
      2      -7.6112      2.00000
      3      -5.8902      2.00000
      4      -5.8235      2.00000
      5      -5.7950      2.00000
      6      -5.7131      2.00000
      7      -5.5965      2.00000
      8      -5.5860      2.00000
      9      -5.4783      2.00000
     10      -5.4027      2.00000
     11      -4.6145      2.00000
     12      -4.2160      2.00000
     13       0.9414      2.00000
     14       1.5330      2.00000
     15       3.4622      2.00000
     16       4.6664      2.00000
     17       6.2388      2.00000
     18       7.4374      2.00000
     19      15.0770      0.00000
     20      15.6869      0.00000
     21      16.2356      0.00000
     22      16.8023      0.00000
     23      17.2413      0.00000
     24      17.6055      0.00000
     25      22.2373      0.00000
     26      23.0646      0.00000
     27      24.4147      0.00000
     28      26.8030      0.00000
     29      28.1666      0.00000
     30      29.7490      0.00000
     31      30.8460      0.00000
     32      32.1009      0.00000

 k-point    41 :       0.0000   -0.3750    0.0000
  band No.  band energies     occupation 
      1      -8.1708      2.00000
      2      -7.6209      2.00000
      3      -5.9169      2.00000
      4      -5.8125      2.00000
      5      -5.7600      2.00000
      6      -5.6952      2.00000
      7      -5.6730      2.00000
      8      -5.6193      2.00000
      9      -5.5250      2.00000
     10      -5.4077      2.00000
     11      -5.2583      2.00000
     12      -3.8646      2.00000
     13       0.8226      2.00000
     14       2.2474      2.00000
     15       2.5243      2.00000
     16       5.6862      2.00000
     17       7.0189      2.00000
     18       8.1289      2.00000
     19      14.6759      0.00000
     20      15.4371      0.00000
     21      16.5007      0.00000
     22      17.0450      0.00000
     23      17.8171      0.00000
     24      18.3552      0.00000
     25      22.6742      0.00000
     26      23.6193      0.00000
     27      23.9997      0.00000
     28      26.2464      0.00000
     29      28.0120      0.00000
     30      28.6173      0.00000
     31      30.0954      0.00000
     32      30.8277      0.00000

 k-point    42 :       0.1250   -0.3750   -0.0000
  band No.  band energies     occupation 
      1      -8.2936      2.00000
      2      -7.7020      2.00000
      3      -5.9144      2.00000
      4      -5.8266      2.00000
      5      -5.8144      2.00000
      6      -5.6994      2.00000
      7      -5.6211      2.00000
      8      -5.5602      2.00000
      9      -5.5141      2.00000
     10      -5.4001      2.00000
     11      -5.1558      2.00000
     12      -3.4736      2.00000
     13       1.0944      2.00000
     14       2.2671      2.00000
     15       2.8698      2.00000
     16       5.9108      2.00000
     17       6.7576      2.00000
     18       7.3977      2.00000
     19      14.4320      0.00000
     20      14.5658      0.00000
     21      16.4122      0.00000
     22      16.9853      0.00000
     23      17.1496      0.00000
     24      17.6243      0.00000
     25      22.4562      0.00000
     26      23.3755      0.00000
     27      24.8882      0.00000
     28      25.7653      0.00000
     29      26.8691      0.00000
     30      29.2781      0.00000
     31      29.9803      0.00000
     32      32.4605      0.00000

 k-point    43 :       0.2500   -0.3750    0.0000
  band No.  band energies     occupation 
      1      -8.2678      2.00000
      2      -7.7766      2.00000
      3      -5.9149      2.00000
      4      -5.8829      2.00000
      5      -5.6935      2.00000
      6      -5.6549      2.00000
      7      -5.5842      2.00000
      8      -5.5146      2.00000
      9      -5.4572      2.00000
     10      -5.3664      2.00000
     11      -4.9131      2.00000
     12      -2.9012      2.00000
     13       1.7161      2.00000
     14       2.5469      2.00000
     15       3.1309      2.00000
     16       5.1170      2.00000
     17       5.6029      2.00000
     18       6.8927      2.00000
     19      12.2087      0.00000
     20      12.7242      0.00000
     21      15.7734      0.00000
     22      16.8753      0.00000
     23      17.8677      0.00000
     24      19.6076      0.00000
     25      21.8930      0.00000
     26      22.2178      0.00000
     27      24.5640      0.00000
     28      26.0428      0.00000
     29      27.1422      0.00000
     30      30.7396      0.00000
     31      32.6649      0.00000
     32      33.5658      0.00000

 k-point    44 :       0.3750   -0.3750    0.0000
  band No.  band energies     occupation 
      1      -8.1475      2.00000
      2      -7.8087      2.00000
      3      -5.9372      2.00000
      4      -5.9313      2.00000
      5      -5.6577      2.00000
      6      -5.6152      2.00000
      7      -5.5394      2.00000
      8      -5.4520      2.00000
      9      -5.3688      2.00000
     10      -5.3052      2.00000
     11      -4.3542      2.00000
     12      -2.4200      2.00000
     13       2.1264      2.00000
     14       2.2658      2.00000
     15       2.8168      2.00000
     16       4.6159      2.00000
     17       5.0176      2.00000
     18       6.8378      2.00000
     19      10.4720      0.00000
     20      11.2032      0.00000
     21      14.6359      0.00000
     22      16.3430      0.00000
     23      18.8058      0.00000
     24      21.4917      0.00000
     25      21.7772      0.00000
     26      22.3245      0.00000
     27      24.0925      0.00000
     28      27.4607      0.00000
     29      27.5120      0.00000
     30      32.1597      0.00000
     31      32.3907      0.00000
     32      32.8364      0.00000

 k-point    45 :       0.5000   -0.3750   -0.0000
  band No.  band energies     occupation 
      1      -7.9874      2.00000
      2      -7.7912      2.00000
      3      -5.9648      2.00000
      4      -5.9471      2.00000
      5      -5.6325      2.00000
      6      -5.6133      2.00000
      7      -5.5287      2.00000
      8      -5.4375      2.00000
      9      -5.3148      2.00000
     10      -5.3068      2.00000
     11      -3.5932      2.00000
     12      -2.5849      2.00000
     13       1.2992      2.00000
     14       1.7798      2.00000
     15       3.6460      2.00000
     16       4.1837      2.00000
     17       4.7672      2.00000
     18       6.3145      2.00000
     19      10.3259      0.00000
     20      11.3889      0.00000
     21      13.8500      0.00000
     22      16.2354      0.00000
     23      19.4161      0.00000
     24      21.5055      0.00000
     25      22.2786      0.00000
     26      22.7541      0.00000
     27      24.1614      0.00000
     28      27.8245      0.00000
     29      28.1141      0.00000
     30      31.2905      0.00000
     31      31.5254      0.00000
     32      33.6165      0.00000

 k-point    46 :      -0.3750   -0.3750   -0.0000
  band No.  band energies     occupation 
      1      -7.8155      2.00000
      2      -7.7535      2.00000
      3      -5.9706      2.00000
      4      -5.9094      2.00000
      5      -5.6618      2.00000
      6      -5.5922      2.00000
      7      -5.5397      2.00000
      8      -5.4541      2.00000
      9      -5.3827      2.00000
     10      -5.3612      2.00000
     11      -3.5622      2.00000
     12      -3.2623      2.00000
     13       1.3458      2.00000
     14       2.1389      2.00000
     15       2.8827      2.00000
     16       4.6282      2.00000
     17       4.7213      2.00000
     18       5.2865      2.00000
     19      11.9496      0.00000
     20      13.0074      0.00000
     21      13.9331      0.00000
     22      16.7003      0.00000
     23      19.4228      0.00000
     24      20.7077      0.00000
     25      22.1176      0.00000
     26      23.1973      0.00000
     27      24.3285      0.00000
     28      27.0845      0.00000
     29      28.8505      0.00000
     30      30.1089      0.00000
     31      31.5197      0.00000
     32      34.2479      0.00000

 k-point    47 :      -0.2500   -0.3750    0.0000
  band No.  band energies     occupation 
      1      -7.7799      2.00000
      2      -7.6642      2.00000
      3      -5.9335      2.00000
      4      -5.8342      2.00000
      5      -5.6908      2.00000
      6      -5.6400      2.00000
      7      -5.5728      2.00000
      8      -5.5302      2.00000
      9      -5.4579      2.00000
     10      -5.4180      2.00000
     11      -4.5817      2.00000
     12      -3.5692      2.00000
     13       1.4680      2.00000
     14       2.2830      2.00000
     15       3.0320      2.00000
     16       4.2983      2.00000
     17       4.9927      2.00000
     18       5.8152      2.00000
     19      14.1581      0.00000
     20      14.6868      0.00000
     21      15.3355      0.00000
     22      17.2884      0.00000
     23      18.6565      0.00000
     24      19.7208      0.00000
     25      21.5344      0.00000
     26      22.5104      0.00000
     27      24.1822      0.00000
     28      27.7279      0.00000
     29      28.7028      0.00000
     30      29.6842      0.00000
     31      32.5832      0.00000
     32      32.8117      0.00000

 k-point    48 :      -0.1250   -0.3750    0.0000
  band No.  band energies     occupation 
      1      -7.9451      2.00000
      2      -7.5929      2.00000
      3      -5.8811      2.00000
      4      -5.7619      2.00000
      5      -5.7472      2.00000
      6      -5.6917      2.00000
      7      -5.6490      2.00000
      8      -5.5954      2.00000
      9      -5.5191      2.00000
     10      -5.4149      2.00000
     11      -5.1704      2.00000
     12      -3.8892      2.00000
     13       0.9619      2.00000
     14       2.2048      2.00000
     15       2.9032      2.00000
     16       5.3123      2.00000
     17       5.5383      2.00000
     18       7.3196      2.00000
     19      15.0557      0.00000
     20      15.8263      0.00000
     21      16.4864      0.00000
     22      17.5160      0.00000
     23      17.7497      0.00000
     24      19.3589      0.00000
     25      21.7147      0.00000
     26      22.1886      0.00000
     27      23.4893      0.00000
     28      27.5071      0.00000
     29      29.3550      0.00000
     30      30.1731      0.00000
     31      30.7560      0.00000
     32      31.3635      0.00000

 k-point    49 :       0.0000   -0.2500   -0.0000
  band No.  band energies     occupation 
      1      -8.9385      2.00000
      2      -7.8614      2.00000
      3      -5.9447      2.00000
      4      -5.8584      2.00000
      5      -5.7345      2.00000
      6      -5.6802      2.00000
      7      -5.6436      2.00000
      8      -5.6038      2.00000
      9      -5.5556      2.00000
     10      -5.4859      2.00000
     11      -5.3804      2.00000
     12      -3.5942      2.00000
     13       0.8823      2.00000
     14       2.4237      2.00000
     15       4.2671      2.00000
     16       6.6945      2.00000
     17       7.0199      2.00000
     18       8.0808      2.00000
     19      13.4310      0.00000
     20      13.9755      0.00000
     21      17.3444      0.00000
     22      17.7493      0.00000
     23      18.6019      0.00000
     24      19.5484      0.00000
     25      22.6994      0.00000
     26      22.7984      0.00000
     27      23.9573      0.00000
     28      25.7143      0.00000
     29      27.1820      0.00000
     30      27.9675      0.00000
     31      29.9337      0.00000
     32      30.3719      0.00000

 k-point    50 :       0.1250   -0.2500    0.0000
  band No.  band energies     occupation 
      1      -8.9682      2.00000
      2      -7.9157      2.00000
      3      -5.9093      2.00000
      4      -5.8286      2.00000
      5      -5.7419      2.00000
      6      -5.6878      2.00000
      7      -5.6617      2.00000
      8      -5.5889      2.00000
      9      -5.5359      2.00000
     10      -5.4832      2.00000
     11      -5.3466      2.00000
     12      -3.3788      2.00000
     13       0.9401      2.00000
     14       2.9314      2.00000
     15       4.7864      2.00000
     16       6.2427      2.00000
     17       6.9054      2.00000
     18       7.5560      2.00000
     19      13.3391      0.00000
     20      13.5889      0.00000
     21      17.5104      0.00000
     22      17.7853      0.00000
     23      18.1993      0.00000
     24      18.5905      0.00000
     25      21.1656      0.00000
     26      21.9192      0.00000
     27      24.0880      0.00000
     28      25.3094      0.00000
     29      27.5020      0.00000
     30      28.7256      0.00000
     31      29.1454      0.00000
     32      32.6735      0.00000

 k-point    51 :       0.2500   -0.2500    0.0000
  band No.  band energies     occupation 
      1      -8.6957      2.00000
      2      -7.8724      2.00000
      3      -5.8732      2.00000
      4      -5.8235      2.00000
      5      -5.7471      2.00000
      6      -5.6366      2.00000
      7      -5.6161      2.00000
      8      -5.5625      2.00000
      9      -5.5585      2.00000
     10      -5.3488      2.00000
     11      -5.3450      2.00000
     12      -3.0690      2.00000
     13       1.4241      2.00000
     14       3.2239      2.00000
     15       4.5791      2.00000
     16       5.0551      2.00000
     17       5.8254      2.00000
     18       7.3534      2.00000
     19      12.8284      0.00000
     20      13.0526      0.00000
     21      16.8341      0.00000
     22      17.6375      0.00000
     23      17.6487      0.00000
     24      19.7457      0.00000
     25      20.4308      0.00000
     26      21.0081      0.00000
     27      25.1953      0.00000
     28      25.6446      0.00000
     29      26.0140      0.00000
     30      29.9308      0.00000
     31      32.6586      0.00000
     32      33.2179      0.00000

 k-point    52 :       0.3750   -0.2500   -0.0000
  band No.  band energies     occupation 
      1      -8.2678      2.00000
      2      -7.7766      2.00000
      3      -5.9149      2.00000
      4      -5.8829      2.00000
      5      -5.6935      2.00000
      6      -5.6549      2.00000
      7      -5.5842      2.00000
      8      -5.5146      2.00000
      9      -5.4572      2.00000
     10      -5.3664      2.00000
     11      -4.9131      2.00000
     12      -2.9012      2.00000
     13       1.7161      2.00000
     14       2.5469      2.00000
     15       3.1309      2.00000
     16       5.1170      2.00000
     17       5.6029      2.00000
     18       6.8927      2.00000
     19      12.2087      0.00000
     20      12.7242      0.00000
     21      15.7734      0.00000
     22      16.8753      0.00000
     23      17.8677      0.00000
     24      19.6076      0.00000
     25      21.8930      0.00000
     26      22.2178      0.00000
     27      24.5640      0.00000
     28      26.0428      0.00000
     29      27.1422      0.00000
     30      30.7396      0.00000
     31      32.6649      0.00000
     32      33.5658      0.00000

 k-point    53 :       0.5000   -0.2500    0.0000
  band No.  band energies     occupation 
      1      -7.8910      2.00000
      2      -7.7034      2.00000
      3      -5.9475      2.00000
      4      -5.8921      2.00000
      5      -5.6754      2.00000
      6      -5.6544      2.00000
      7      -5.5743      2.00000
      8      -5.4970      2.00000
      9      -5.4193      2.00000
     10      -5.3844      2.00000
     11      -4.2102      2.00000
     12      -3.4287      2.00000
     13       1.3022      2.00000
     14       1.9390      2.00000
     15       3.5830      2.00000
     16       4.1639      2.00000
     17       5.6213      2.00000
     18       6.0718      2.00000
     19      12.6846      0.00000
     20      13.5803      0.00000
     21      14.9714      0.00000
     22      16.8099      0.00000
     23      18.3179      0.00000
     24      19.6106      0.00000
     25      22.4822      0.00000
     26      22.7432      0.00000
     27      24.3138      0.00000
     28      26.4276      0.00000
     29      28.2303      0.00000
     30      30.4193      0.00000
     31      32.7139      0.00000
     32      33.6524      0.00000

 k-point    54 :      -0.3750   -0.2500    0.0000
  band No.  band energies     occupation 
      1      -7.7799      2.00000
      2      -7.6642      2.00000
      3      -5.9335      2.00000
      4      -5.8342      2.00000
      5      -5.6908      2.00000
      6      -5.6400      2.00000
      7      -5.5728      2.00000
      8      -5.5302      2.00000
      9      -5.4579      2.00000
     10      -5.4180      2.00000
     11      -4.5817      2.00000
     12      -3.5692      2.00000
     13       1.4680      2.00000
     14       2.2830      2.00000
     15       3.0320      2.00000
     16       4.2983      2.00000
     17       4.9927      2.00000
     18       5.8152      2.00000
     19      14.1581      0.00000
     20      14.6868      0.00000
     21      15.3355      0.00000
     22      17.2884      0.00000
     23      18.6565      0.00000
     24      19.7208      0.00000
     25      21.5344      0.00000
     26      22.5104      0.00000
     27      24.1822      0.00000
     28      27.7279      0.00000
     29      28.7028      0.00000
     30      29.6842      0.00000
     31      32.5832      0.00000
     32      32.8117      0.00000

 k-point    55 :      -0.2500   -0.2500    0.0000
  band No.  band energies     occupation 
      1      -8.1015      2.00000
      2      -7.6342      2.00000
      3      -5.8722      2.00000
      4      -5.7464      2.00000
      5      -5.7020      2.00000
      6      -5.6547      2.00000
      7      -5.6140      2.00000
      8      -5.6021      2.00000
      9      -5.5182      2.00000
     10      -5.4369      2.00000
     11      -5.3610      2.00000
     12      -3.5294      2.00000
     13       1.6513      2.00000
     14       3.1298      2.00000
     15       3.1953      2.00000
     16       3.3562      2.00000
     17       5.9450      2.00000
     18       6.0854      2.00000
     19      15.0384      0.00000
     20      15.4471      0.00000
     21      16.4223      0.00000
     22      17.9443      0.00000
     23      18.6323      0.00000
     24      20.1318      0.00000
     25      21.2734      0.00000
     26      22.1177      0.00000
     27      23.1867      0.00000
     28      26.9248      0.00000
     29      30.3719      0.00000
     30      30.4258      0.00000
     31      31.5618      0.00000
     32      32.8655      0.00000

 k-point    56 :      -0.1250   -0.2500    0.0000
  band No.  band energies     occupation 
      1      -8.5937      2.00000
      2      -7.7337      2.00000
      3      -5.8681      2.00000
      4      -5.7963      2.00000
      5      -5.7503      2.00000
      6      -5.6960      2.00000
      7      -5.6527      2.00000
      8      -5.5845      2.00000
      9      -5.5814      2.00000
     10      -5.4948      2.00000
     11      -5.4213      2.00000
     12      -3.6383      2.00000
     13       1.1963      2.00000
     14       2.4472      2.00000
     15       3.8451      2.00000
     16       5.1458      2.00000
     17       6.5657      2.00000
     18       7.2710      2.00000
     19      14.3207      0.00000
     20      15.4156      0.00000
     21      16.9550      0.00000
     22      18.0707      0.00000
     23      18.4695      0.00000
     24      20.2455      0.00000
     25      21.4305      0.00000
     26      23.1415      0.00000
     27      23.8287      0.00000
     28      26.1859      0.00000
     29      27.7043      0.00000
     30      29.2855      0.00000
     31      31.6650      0.00000
     32      32.7140      0.00000

 k-point    57 :       0.0000   -0.1250    0.0000
  band No.  band energies     occupation 
      1      -9.5457      2.00000
      2      -8.1187      2.00000
      3      -5.9469      2.00000
      4      -5.8762      2.00000
      5      -5.8039      2.00000
      6      -5.6580      2.00000
      7      -5.6472      2.00000
      8      -5.5674      2.00000
      9      -5.5362      2.00000
     10      -5.4580      2.00000
     11      -5.3697      2.00000
     12      -3.6514      2.00000
     13       0.1797      2.00000
     14       4.2466      2.00000
     15       6.2062      2.00000
     16       6.6190      2.00000
     17       7.7660      2.00000
     18       8.0788      2.00000
     19      11.9637      0.00000
     20      12.3150      0.00000
     21      17.6484      0.00000
     22      18.9645      0.00000
     23      19.8199      0.00000
     24      20.9430      0.00000
     25      21.8598      0.00000
     26      22.6347      0.00000
     27      23.2165      0.00000
     28      24.7846      0.00000
     29      26.7648      0.00000
     30      27.7486      0.00000
     31      29.1837      0.00000
     32      30.9946      0.00000

 k-point    58 :       0.1250   -0.1250    0.0000
  band No.  band energies     occupation 
      1      -9.4460      2.00000
      2      -8.0944      2.00000
      3      -5.9004      2.00000
      4      -5.8701      2.00000
      5      -5.7701      2.00000
      6      -5.6703      2.00000
      7      -5.6596      2.00000
      8      -5.5925      2.00000
      9      -5.5436      2.00000
     10      -5.4928      2.00000
     11      -5.3441      2.00000
     12      -3.5414      2.00000
     13       0.3269      2.00000
     14       4.4821      2.00000
     15       6.0124      2.00000
     16       6.7071      2.00000
     17       6.8873      2.00000
     18       7.8327      2.00000
     19      12.3249      0.00000
     20      12.6656      0.00000
     21      18.2399      0.00000
     22      18.6253      0.00000
     23      20.1451      0.00000
     24      20.1588      0.00000
     25      20.4266      0.00000
     26      20.8301      0.00000
     27      23.1233      0.00000
     28      24.3648      0.00000
     29      28.1668      0.00000
     30      28.5111      0.00000
     31      29.0906      0.00000
     32      30.1020      0.00000

 k-point    59 :       0.2500   -0.1250   -0.0000
  band No.  band energies     occupation 
      1      -8.9682      2.00000
      2      -7.9157      2.00000
      3      -5.9093      2.00000
      4      -5.8286      2.00000
      5      -5.7419      2.00000
      6      -5.6878      2.00000
      7      -5.6617      2.00000
      8      -5.5889      2.00000
      9      -5.5359      2.00000
     10      -5.4832      2.00000
     11      -5.3466      2.00000
     12      -3.3788      2.00000
     13       0.9401      2.00000
     14       2.9314      2.00000
     15       4.7864      2.00000
     16       6.2427      2.00000
     17       6.9054      2.00000
     18       7.5560      2.00000
     19      13.3391      0.00000
     20      13.5889      0.00000
     21      17.5104      0.00000
     22      17.7853      0.00000
     23      18.1993      0.00000
     24      18.5905      0.00000
     25      21.1656      0.00000
     26      21.9192      0.00000
     27      24.0880      0.00000
     28      25.3094      0.00000
     29      27.5020      0.00000
     30      28.7256      0.00000
     31      29.1454      0.00000
     32      32.6735      0.00000

 k-point    60 :       0.3750   -0.1250    0.0000
  band No.  band energies     occupation 
      1      -8.2936      2.00000
      2      -7.7020      2.00000
      3      -5.9144      2.00000
      4      -5.8266      2.00000
      5      -5.8144      2.00000
      6      -5.6994      2.00000
      7      -5.6211      2.00000
      8      -5.5602      2.00000
      9      -5.5141      2.00000
     10      -5.4001      2.00000
     11      -5.1558      2.00000
     12      -3.4736      2.00000
     13       1.0944      2.00000
     14       2.2671      2.00000
     15       2.8698      2.00000
     16       5.9108      2.00000
     17       6.7576      2.00000
     18       7.3977      2.00000
     19      14.4320      0.00000
     20      14.5658      0.00000
     21      16.4122      0.00000
     22      16.9853      0.00000
     23      17.1496      0.00000
     24      17.6243      0.00000
     25      22.4562      0.00000
     26      23.3755      0.00000
     27      24.8882      0.00000
     28      25.7653      0.00000
     29      26.8691      0.00000
     30      29.2781      0.00000
     31      29.9803      0.00000
     32      32.4605      0.00000

 k-point    61 :       0.5000   -0.1250   -0.0000
  band No.  band energies     occupation 
      1      -7.7919      2.00000
      2      -7.6112      2.00000
      3      -5.8902      2.00000
      4      -5.8235      2.00000
      5      -5.7950      2.00000
      6      -5.7131      2.00000
      7      -5.5965      2.00000
      8      -5.5860      2.00000
      9      -5.4783      2.00000
     10      -5.4027      2.00000
     11      -4.6145      2.00000
     12      -4.2160      2.00000
     13       0.9414      2.00000
     14       1.5330      2.00000
     15       3.4622      2.00000
     16       4.6664      2.00000
     17       6.2388      2.00000
     18       7.4374      2.00000
     19      15.0770      0.00000
     20      15.6869      0.00000
     21      16.2356      0.00000
     22      16.8023      0.00000
     23      17.2413      0.00000
     24      17.6055      0.00000
     25      22.2373      0.00000
     26      23.0646      0.00000
     27      24.4147      0.00000
     28      26.8030      0.00000
     29      28.1666      0.00000
     30      29.7490      0.00000
     31      30.8460      0.00000
     32      32.1009      0.00000

 k-point    62 :      -0.3750   -0.1250    0.0000
  band No.  band energies     occupation 
      1      -7.9451      2.00000
      2      -7.5929      2.00000
      3      -5.8811      2.00000
      4      -5.7619      2.00000
      5      -5.7472      2.00000
      6      -5.6917      2.00000
      7      -5.6490      2.00000
      8      -5.5954      2.00000
      9      -5.5191      2.00000
     10      -5.4149      2.00000
     11      -5.1704      2.00000
     12      -3.8892      2.00000
     13       0.9619      2.00000
     14       2.2048      2.00000
     15       2.9032      2.00000
     16       5.3123      2.00000
     17       5.5383      2.00000
     18       7.3196      2.00000
     19      15.0557      0.00000
     20      15.8263      0.00000
     21      16.4864      0.00000
     22      17.5160      0.00000
     23      17.7497      0.00000
     24      19.3589      0.00000
     25      21.7147      0.00000
     26      22.1886      0.00000
     27      23.4893      0.00000
     28      27.5071      0.00000
     29      29.3550      0.00000
     30      30.1731      0.00000
     31      30.7560      0.00000
     32      31.3635      0.00000

 k-point    63 :      -0.2500   -0.1250    0.0000
  band No.  band energies     occupation 
      1      -8.5937      2.00000
      2      -7.7337      2.00000
      3      -5.8681      2.00000
      4      -5.7963      2.00000
      5      -5.7503      2.00000
      6      -5.6960      2.00000
      7      -5.6527      2.00000
      8      -5.5845      2.00000
      9      -5.5814      2.00000
     10      -5.4948      2.00000
     11      -5.4213      2.00000
     12      -3.6383      2.00000
     13       1.1963      2.00000
     14       2.4472      2.00000
     15       3.8451      2.00000
     16       5.1458      2.00000
     17       6.5657      2.00000
     18       7.2710      2.00000
     19      14.3207      0.00000
     20      15.4156      0.00000
     21      16.9550      0.00000
     22      18.0707      0.00000
     23      18.4695      0.00000
     24      20.2455      0.00000
     25      21.4305      0.00000
     26      23.1415      0.00000
     27      23.8287      0.00000
     28      26.1859      0.00000
     29      27.7043      0.00000
     30      29.2855      0.00000
     31      31.6650      0.00000
     32      32.7140      0.00000

 k-point    64 :      -0.1250   -0.1250    0.0000
  band No.  band energies     occupation 
      1      -9.2307      2.00000
      2      -7.9667      2.00000
      3      -5.9315      2.00000
      4      -5.8249      2.00000
      5      -5.8187      2.00000
      6      -5.6744      2.00000
      7      -5.6451      2.00000
      8      -5.5625      2.00000
      9      -5.5556      2.00000
     10      -5.4633      2.00000
     11      -5.4302      2.00000
     12      -3.6509      2.00000
     13       0.5328      2.00000
     14       3.5894      2.00000
     15       5.3258      2.00000
     16       5.6500      2.00000
     17       7.3840      2.00000
     18       7.6523      2.00000
     19      13.0184      0.00000
     20      13.7968      0.00000
     21      17.8158      0.00000
     22      18.4688      0.00000
     23      19.3130      0.00000
     24      19.9860      0.00000
     25      21.8239      0.00000
     26      23.0708      0.00000
     27      25.3162      0.00000
     28      25.4358      0.00000
     29      27.4682      0.00000
     30      28.6539      0.00000
     31      28.9370      0.00000
     32      30.9444      0.00000

 k-point    65 :      -0.0000   -0.0000    0.1667
  band No.  band energies     occupation 
      1      -9.6449      2.00000
      2      -8.2833      2.00000
      3      -5.9475      2.00000
      4      -5.8951      2.00000
      5      -5.8434      2.00000
      6      -5.6385      2.00000
      7      -5.6289      2.00000
      8      -5.5434      2.00000
      9      -5.5408      2.00000
     10      -5.4259      2.00000
     11      -5.3619      2.00000
     12      -4.2262      2.00000
     13       0.7206      2.00000
     14       5.2085      2.00000
     15       6.9264      2.00000
     16       6.9500      2.00000
     17       7.3866      2.00000
     18       8.2118      2.00000
     19      11.4827      0.00000
     20      11.6415      0.00000
     21      17.5613      0.00000
     22      18.9523      0.00000
     23      19.3320      0.00000
     24      21.2717      0.00000
     25      22.3119      0.00000
     26      22.4599      0.00000
     27      22.6652      0.00000
     28      26.1478      0.00000
     29      26.9100      0.00000
     30      27.6100      0.00000
     31      27.8580      0.00000
     32      30.5336      0.00000

 k-point    66 :       0.1250   -0.0000    0.1667
  band No.  band energies     occupation 
      1      -9.4280      2.00000
      2      -8.1672      2.00000
      3      -5.9458      2.00000
      4      -5.8788      2.00000
      5      -5.8186      2.00000
      6      -5.6473      2.00000
      7      -5.6295      2.00000
      8      -5.5703      2.00000
      9      -5.5363      2.00000
     10      -5.4598      2.00000
     11      -5.3861      2.00000
     12      -4.1333      2.00000
     13       0.9004      2.00000
     14       4.4201      2.00000
     15       5.8145      2.00000
     16       6.7032      2.00000
     17       7.5348      2.00000
     18       8.0185      2.00000
     19      12.3166      0.00000
     20      12.4845      0.00000
     21      17.7039      0.00000
     22      18.5545      0.00000
     23      19.0048      0.00000
     24      20.1874      0.00000
     25      22.2005      0.00000
     26      22.7311      0.00000
     27      23.3577      0.00000
     28      25.0070      0.00000
     29      27.1748      0.00000
     30      28.3347      0.00000
     31      29.8060      0.00000
     32      31.3664      0.00000

 k-point    67 :       0.2500    0.0000    0.1667
  band No.  band energies     occupation 
      1      -8.8341      2.00000
      2      -7.8844      2.00000
      3      -5.9477      2.00000
      4      -5.8673      2.00000
      5      -5.7710      2.00000
      6      -5.6484      2.00000
      7      -5.6393      2.00000
      8      -5.5989      2.00000
      9      -5.5518      2.00000
     10      -5.4768      2.00000
     11      -5.3902      2.00000
     12      -3.9697      2.00000
     13       1.1290      2.00000
     14       2.9445      2.00000
     15       3.8666      2.00000
     16       6.7700      2.00000
     17       7.1746      2.00000
     18       7.9919      2.00000
     19      13.3339      0.00000
     20      14.1210      0.00000
     21      16.9720      0.00000
     22      17.6567      0.00000
     23      18.5302      0.00000
     24      19.3455      0.00000
     25      22.2626      0.00000
     26      23.0129      0.00000
     27      23.8315      0.00000
     28      25.9313      0.00000
     29      27.2517      0.00000
     30      29.1360      0.00000
     31      29.9914      0.00000
     32      30.6603      0.00000

 k-point    68 :       0.3750   -0.0000    0.1667
  band No.  band energies     occupation 
      1      -8.0954      2.00000
      2      -7.6158      2.00000
      3      -5.9245      2.00000
      4      -5.8368      2.00000
      5      -5.7850      2.00000
      6      -5.7201      2.00000
      7      -5.6332      2.00000
      8      -5.5957      2.00000
      9      -5.4896      2.00000
     10      -5.4118      2.00000
     11      -5.2585      2.00000
     12      -4.0466      2.00000
     13       0.4456      2.00000
     14       1.9652      2.00000
     15       3.2743      2.00000
     16       6.0974      2.00000
     17       7.1121      2.00000
     18       8.0637      2.00000
     19      14.0188      0.00000
     20      15.2884      0.00000
     21      16.3049      0.00000
     22      17.3011      0.00000
     23      18.0038      0.00000
     24      18.4435      0.00000
     25      22.4003      0.00000
     26      23.2336      0.00000
     27      23.7083      0.00000
     28      26.7371      0.00000
     29      27.8808      0.00000
     30      28.9598      0.00000
     31      30.3177      0.00000
     32      30.9613      0.00000

 k-point    69 :       0.5000   -0.0000    0.1667
  band No.  band energies     occupation 
      1      -7.7059      2.00000
      2      -7.5467      2.00000
      3      -5.9084      2.00000
      4      -5.8119      2.00000
      5      -5.7627      2.00000
      6      -5.7578      2.00000
      7      -5.6197      2.00000
      8      -5.6119      2.00000
      9      -5.4529      2.00000
     10      -5.4087      2.00000
     11      -4.7629      2.00000
     12      -4.5862      2.00000
     13       0.3748      2.00000
     14       0.8767      2.00000
     15       4.1660      2.00000
     16       5.1081      2.00000
     17       7.2438      2.00000
     18       8.0833      2.00000
     19      14.5998      0.00000
     20      14.7395      0.00000
     21      17.0552      0.00000
     22      17.2272      0.00000
     23      17.8474      0.00000
     24      17.8957      0.00000
     25      22.0320      0.00000
     26      22.7094      0.00000
     27      24.7160      0.00000
     28      25.6950      0.00000
     29      28.3805      0.00000
     30      29.3329      0.00000
     31      30.4737      0.00000
     32      31.2983      0.00000

 k-point    70 :      -0.3750    0.0000    0.1667
  band No.  band energies     occupation 
      1      -8.0954      2.00000
      2      -7.6158      2.00000
      3      -5.9245      2.00000
      4      -5.8368      2.00000
      5      -5.7850      2.00000
      6      -5.7201      2.00000
      7      -5.6332      2.00000
      8      -5.5957      2.00000
      9      -5.4896      2.00000
     10      -5.4118      2.00000
     11      -5.2586      2.00000
     12      -4.0466      2.00000
     13       0.4456      2.00000
     14       1.9652      2.00000
     15       3.2743      2.00000
     16       6.0974      2.00000
     17       7.1121      2.00000
     18       8.0637      2.00000
     19      14.0189      0.00000
     20      15.2882      0.00000
     21      16.3048      0.00000
     22      17.3011      0.00000
     23      18.0040      0.00000
     24      18.4435      0.00000
     25      22.4003      0.00000
     26      23.2337      0.00000
     27      23.7081      0.00000
     28      26.7371      0.00000
     29      27.8807      0.00000
     30      28.9598      0.00000
     31      30.3176      0.00000
     32      30.9614      0.00000

 k-point    71 :      -0.2500    0.0000    0.1667
  band No.  band energies     occupation 
      1      -8.8341      2.00000
      2      -7.8844      2.00000
      3      -5.9477      2.00000
      4      -5.8673      2.00000
      5      -5.7710      2.00000
      6      -5.6484      2.00000
      7      -5.6393      2.00000
      8      -5.5990      2.00000
      9      -5.5518      2.00000
     10      -5.4768      2.00000
     11      -5.3902      2.00000
     12      -3.9697      2.00000
     13       1.1290      2.00000
     14       2.9445      2.00000
     15       3.8666      2.00000
     16       6.7700      2.00000
     17       7.1746      2.00000
     18       7.9919      2.00000
     19      13.3340      0.00000
     20      14.1210      0.00000
     21      16.9719      0.00000
     22      17.6567      0.00000
     23      18.5303      0.00000
     24      19.3456      0.00000
     25      22.2625      0.00000
     26      23.0128      0.00000
     27      23.8314      0.00000
     28      25.9313      0.00000
     29      27.2517      0.00000
     30      29.1361      0.00000
     31      29.9914      0.00000
     32      30.6603      0.00000

 k-point    72 :      -0.1250   -0.0000    0.1667
  band No.  band energies     occupation 
      1      -9.4280      2.00000
      2      -8.1672      2.00000
      3      -5.9458      2.00000
      4      -5.8788      2.00000
      5      -5.8186      2.00000
      6      -5.6473      2.00000
      7      -5.6295      2.00000
      8      -5.5703      2.00000
      9      -5.5364      2.00000
     10      -5.4598      2.00000
     11      -5.3861      2.00000
     12      -4.1333      2.00000
     13       0.9004      2.00000
     14       4.4201      2.00000
     15       5.8145      2.00000
     16       6.7032      2.00000
     17       7.5348      2.00000
     18       8.0186      2.00000
     19      12.3166      0.00000
     20      12.4845      0.00000
     21      17.7039      0.00000
     22      18.5545      0.00000
     23      19.0049      0.00000
     24      20.1874      0.00000
     25      22.2004      0.00000
     26      22.7312      0.00000
     27      23.3577      0.00000
     28      25.0070      0.00000
     29      27.1747      0.00000
     30      28.3347      0.00000
     31      29.8061      0.00000
     32      31.3663      0.00000

 k-point    73 :       0.0000    0.1250    0.1667
  band No.  band energies     occupation 
      1      -9.4280      2.00000
      2      -8.1672      2.00000
      3      -5.9458      2.00000
      4      -5.8788      2.00000
      5      -5.8186      2.00000
      6      -5.6473      2.00000
      7      -5.6295      2.00000
      8      -5.5703      2.00000
      9      -5.5364      2.00000
     10      -5.4598      2.00000
     11      -5.3861      2.00000
     12      -4.1333      2.00000
     13       0.9004      2.00000
     14       4.4201      2.00000
     15       5.8145      2.00000
     16       6.7032      2.00000
     17       7.5348      2.00000
     18       8.0186      2.00000
     19      12.3166      0.00000
     20      12.4845      0.00000
     21      17.7039      0.00000
     22      18.5545      0.00000
     23      19.0049      0.00000
     24      20.1874      0.00000
     25      22.2004      0.00000
     26      22.7312      0.00000
     27      23.3577      0.00000
     28      25.0070      0.00000
     29      27.1747      0.00000
     30      28.3347      0.00000
     31      29.8061      0.00000
     32      31.3663      0.00000

 k-point    74 :       0.1250    0.1250    0.1667
  band No.  band energies     occupation 
      1      -9.1185      2.00000
      2      -8.0021      2.00000
      3      -5.9322      2.00000
      4      -5.8363      2.00000
      5      -5.8355      2.00000
      6      -5.6560      2.00000
      7      -5.6221      2.00000
      8      -5.5696      2.00000
      9      -5.5413      2.00000
     10      -5.4828      2.00000
     11      -5.4386      2.00000
     12      -4.0769      2.00000
     13       1.0855      2.00000
     14       3.8705      2.00000
     15       4.8870      2.00000
     16       5.7660      2.00000
     17       7.4560      2.00000
     18       7.4987      2.00000
     19      13.1909      0.00000
     20      13.9285      0.00000
     21      17.8310      0.00000
     22      18.1405      0.00000
     23      18.9427      0.00000
     24      18.9717      0.00000
     25      22.4769      0.00000
     26      23.5507      0.00000
     27      25.2866      0.00000
     28      25.3031      0.00000
     29      27.9543      0.00000
     30      28.0852      0.00000
     31      29.4069      0.00000
     32      31.7169      0.00000

 k-point    75 :       0.2500    0.1250    0.1667
  band No.  band energies     occupation 
      1      -8.4992      2.00000
      2      -7.7437      2.00000
      3      -5.8770      2.00000
      4      -5.8150      2.00000
      5      -5.7666      2.00000
      6      -5.6705      2.00000
      7      -5.6545      2.00000
      8      -5.5871      2.00000
      9      -5.5609      2.00000
     10      -5.4847      2.00000
     11      -5.4270      2.00000
     12      -3.9504      2.00000
     13       1.1621      2.00000
     14       3.1306      2.00000
     15       3.4325      2.00000
     16       5.2845      2.00000
     17       6.8124      2.00000
     18       7.1403      2.00000
     19      14.1737      0.00000
     20      15.5356      0.00000
     21      17.0118      0.00000
     22      17.6373      0.00000
     23      18.3853      0.00000
     24      19.3223      0.00000
     25      21.8954      0.00000
     26      23.6372      0.00000
     27      23.9021      0.00000
     28      26.5842      0.00000
     29      27.7870      0.00000
     30      29.1187      0.00000
     31      31.2654      0.00000
     32      31.9788      0.00000

 k-point    76 :       0.3750    0.1250    0.1667
  band No.  band energies     occupation 
      1      -7.8839      2.00000
      2      -7.5789      2.00000
      3      -5.8888      2.00000
      4      -5.7832      2.00000
      5      -5.7506      2.00000
      6      -5.7221      2.00000
      7      -5.6611      2.00000
      8      -5.5623      2.00000
      9      -5.4834      2.00000
     10      -5.4214      2.00000
     11      -5.1438      2.00000
     12      -4.0187      2.00000
     13       0.5842      2.00000
     14       1.7914      2.00000
     15       3.6459      2.00000
     16       5.6338      2.00000
     17       5.8579      2.00000
     18       7.1684      2.00000
     19      14.4717      0.00000
     20      16.0770      0.00000
     21      16.4256      0.00000
     22      16.9433      0.00000
     23      18.2742      0.00000
     24      19.2449      0.00000
     25      20.7386      0.00000
     26      23.1528      0.00000
     27      23.6040      0.00000
     28      27.6703      0.00000
     29      28.5002      0.00000
     30      29.8971      0.00000
     31      30.6945      0.00000
     32      31.7931      0.00000

 k-point    77 :       0.5000    0.1250    0.1667
  band No.  band energies     occupation 
      1      -7.7447      2.00000
      2      -7.5889      2.00000
      3      -5.8963      2.00000
      4      -5.8327      2.00000
      5      -5.8033      2.00000
      6      -5.7492      2.00000
      7      -5.6282      2.00000
      8      -5.5400      2.00000
      9      -5.4613      2.00000
     10      -5.3919      2.00000
     11      -4.6071      2.00000
     12      -4.2460      2.00000
     13       0.5235      2.00000
     14       1.1276      2.00000
     15       4.1760      2.00000
     16       5.1264      2.00000
     17       6.4028      2.00000
     18       7.3328      2.00000
     19      14.5792      0.00000
     20      15.1663      0.00000
     21      16.0589      0.00000
     22      16.8330      0.00000
     23      17.7189      0.00000
     24      18.1674      0.00000
     25      21.1453      0.00000
     26      23.2585      0.00000
     27      24.5227      0.00000
     28      26.3580      0.00000
     29      28.4495      0.00000
     30      30.0412      0.00000
     31      31.2818      0.00000
     32      31.8491      0.00000

 k-point    78 :      -0.3750    0.1250    0.1667
  band No.  band energies     occupation 
      1      -8.2166      2.00000
      2      -7.6995      2.00000
      3      -5.9165      2.00000
      4      -5.8405      2.00000
      5      -5.8228      2.00000
      6      -5.7275      2.00000
      7      -5.6325      2.00000
      8      -5.5386      2.00000
      9      -5.4956      2.00000
     10      -5.4008      2.00000
     11      -5.1271      2.00000
     12      -3.6999      2.00000
     13       0.7770      2.00000
     14       2.4672      2.00000
     15       3.1790      2.00000
     16       6.1246      2.00000
     17       6.8695      2.00000
     18       7.3603      2.00000
     19      14.1471      0.00000
     20      14.6237      0.00000
     21      15.6658      0.00000
     22      16.6992      0.00000
     23      17.8339      0.00000
     24      18.1571      0.00000
     25      21.9461      0.00000
     26      22.3399      0.00000
     27      25.2368      0.00000
     28      25.9957      0.00000
     29      27.1873      0.00000
     30      29.5757      0.00000
     31      30.8703      0.00000
     32      32.3274      0.00000

 k-point    79 :      -0.2500    0.1250    0.1667
  band No.  band energies     occupation 
      1      -8.8658      2.00000
      2      -7.9385      2.00000
      3      -5.9093      2.00000
      4      -5.8332      2.00000
      5      -5.7570      2.00000
      6      -5.7091      2.00000
      7      -5.6473      2.00000
      8      -5.5839      2.00000
      9      -5.5611      2.00000
     10      -5.4362      2.00000
     11      -5.3541      2.00000
     12      -3.7837      2.00000
     13       1.3910      2.00000
     14       3.2554      2.00000
     15       4.4520      2.00000
     16       6.3179      2.00000
     17       6.8506      2.00000
     18       7.5419      2.00000
     19      13.4700      0.00000
     20      13.7075      0.00000
     21      16.7164      0.00000
     22      17.4903      0.00000
     23      18.4564      0.00000
     24      19.0289      0.00000
     25      20.8749      0.00000
     26      21.3782      0.00000
     27      24.4576      0.00000
     28      25.8047      0.00000
     29      27.2268      0.00000
     30      28.5587      0.00000
     31      30.1156      0.00000
     32      32.7581      0.00000

 k-point    80 :      -0.1250    0.1250    0.1667
  band No.  band energies     occupation 
      1      -9.3313      2.00000
      2      -8.1376      2.00000
      3      -5.8958      2.00000
      4      -5.8729      2.00000
      5      -5.7827      2.00000
      6      -5.6796      2.00000
      7      -5.6354      2.00000
      8      -5.6036      2.00000
      9      -5.5587      2.00000
     10      -5.4607      2.00000
     11      -5.3646      2.00000
     12      -4.0192      2.00000
     13       1.0494      2.00000
     14       4.6126      2.00000
     15       6.1205      2.00000
     16       6.4211      2.00000
     17       6.5318      2.00000
     18       7.8470      2.00000
     19      12.6629      0.00000
     20      12.8187      0.00000
     21      18.0346      0.00000
     22      18.3696      0.00000
     23      18.9496      0.00000
     24      20.1548      0.00000
     25      20.4821      0.00000
     26      21.0118      0.00000
     27      23.1200      0.00000
     28      25.2709      0.00000
     29      27.7596      0.00000
     30      29.0105      0.00000
     31      29.5368      0.00000
     32      30.7763      0.00000

 k-point    81 :       0.0000    0.2500    0.1667
  band No.  band energies     occupation 
      1      -8.8341      2.00000
      2      -7.8844      2.00000
      3      -5.9477      2.00000
      4      -5.8673      2.00000
      5      -5.7710      2.00000
      6      -5.6484      2.00000
      7      -5.6393      2.00000
      8      -5.5990      2.00000
      9      -5.5518      2.00000
     10      -5.4768      2.00000
     11      -5.3902      2.00000
     12      -3.9697      2.00000
     13       1.1290      2.00000
     14       2.9445      2.00000
     15       3.8666      2.00000
     16       6.7700      2.00000
     17       7.1746      2.00000
     18       7.9919      2.00000
     19      13.3340      0.00000
     20      14.1210      0.00000
     21      16.9719      0.00000
     22      17.6567      0.00000
     23      18.5303      0.00000
     24      19.3456      0.00000
     25      22.2625      0.00000
     26      23.0128      0.00000
     27      23.8314      0.00000
     28      25.9313      0.00000
     29      27.2517      0.00000
     30      29.1361      0.00000
     31      29.9914      0.00000
     32      30.6603      0.00000

 k-point    82 :       0.1250    0.2500    0.1667
  band No.  band energies     occupation 
      1      -8.4992      2.00000
      2      -7.7437      2.00000
      3      -5.8770      2.00000
      4      -5.8150      2.00000
      5      -5.7666      2.00000
      6      -5.6705      2.00000
      7      -5.6545      2.00000
      8      -5.5871      2.00000
      9      -5.5609      2.00000
     10      -5.4847      2.00000
     11      -5.4270      2.00000
     12      -3.9504      2.00000
     13       1.1621      2.00000
     14       3.1306      2.00000
     15       3.4325      2.00000
     16       5.2845      2.00000
     17       6.8125      2.00000
     18       7.1402      2.00000
     19      14.1738      0.00000
     20      15.5356      0.00000
     21      17.0117      0.00000
     22      17.6372      0.00000
     23      18.3855      0.00000
     24      19.3224      0.00000
     25      21.8954      0.00000
     26      23.6372      0.00000
     27      23.9022      0.00000
     28      26.5842      0.00000
     29      27.7870      0.00000
     30      29.1187      0.00000
     31      31.2651      0.00000
     32      31.9790      0.00000

 k-point    83 :       0.2500    0.2500    0.1667
  band No.  band energies     occupation 
      1      -8.0317      2.00000
      2      -7.6256      2.00000
      3      -5.8699      2.00000
      4      -5.7567      2.00000
      5      -5.7387      2.00000
      6      -5.6501      2.00000
      7      -5.6097      2.00000
      8      -5.6056      2.00000
      9      -5.5213      2.00000
     10      -5.4746      2.00000
     11      -5.2695      2.00000
     12      -3.7425      2.00000
     13       1.3636      2.00000
     14       2.8570      2.00000
     15       3.4199      2.00000
     16       3.9371      2.00000
     17       5.8371      2.00000
     18       6.3652      2.00000
     19      15.0439      0.00000
     20      15.6790      0.00000
     21      16.3544      0.00000
     22      17.6075      0.00000
     23      18.3032      0.00000
     24      18.9486      0.00000
     25      22.1606      0.00000
     26      22.4520      0.00000
     27      23.3577      0.00000
     28      27.4444      0.00000
     29      29.4037      0.00000
     30      29.9323      0.00000
     31      31.4258      0.00000
     32      32.9857      0.00000

 k-point    84 :       0.3750    0.2500    0.1667
  band No.  band energies     occupation 
      1      -7.7381      2.00000
      2      -7.6393      2.00000
      3      -5.9248      2.00000
      4      -5.8333      2.00000
      5      -5.7499      2.00000
      6      -5.6359      2.00000
      7      -5.5868      2.00000
      8      -5.5216      2.00000
      9      -5.4676      2.00000
     10      -5.4152      2.00000
     11      -4.5235      2.00000
     12      -3.6404      2.00000
     13       1.1725      2.00000
     14       1.8892      2.00000
     15       3.1086      2.00000
     16       4.9547      2.00000
     17       5.2741      2.00000
     18       5.7935      2.00000
     19      14.1983      0.00000
     20      14.8773      0.00000
     21      15.3600      0.00000
     22      17.1037      0.00000
     23      18.2642      0.00000
     24      19.0771      0.00000
     25      21.5135      0.00000
     26      23.0415      0.00000
     27      24.0786      0.00000
     28      27.1408      0.00000
     29      29.1340      0.00000
     30      30.2899      0.00000
     31      31.1623      0.00000
     32      32.9086      0.00000

 k-point    85 :       0.5000    0.2500    0.1667
  band No.  band energies     occupation 
      1      -7.8461      2.00000
      2      -7.6830      2.00000
      3      -5.9391      2.00000
      4      -5.8898      2.00000
      5      -5.7357      2.00000
      6      -5.6461      2.00000
      7      -5.5961      2.00000
      8      -5.4971      2.00000
      9      -5.4311      2.00000
     10      -5.3673      2.00000
     11      -4.1695      2.00000
     12      -3.4762      2.00000
     13       0.9951      2.00000
     14       1.6817      2.00000
     15       3.9061      2.00000
     16       4.3839      2.00000
     17       5.6985      2.00000
     18       6.2634      2.00000
     19      12.7220      0.00000
     20      13.5272      0.00000
     21      15.2459      0.00000
     22      16.6321      0.00000
     23      18.3402      0.00000
     24      19.4368      0.00000
     25      21.5282      0.00000
     26      22.7179      0.00000
     27      24.2180      0.00000
     28      26.6459      0.00000
     29      29.0891      0.00000
     30      30.5795      0.00000
     31      31.1304      0.00000
     32      33.5941      0.00000

 k-point    86 :      -0.3750    0.2500    0.1667
  band No.  band energies     occupation 
      1      -8.2003      2.00000
      2      -7.7714      2.00000
      3      -5.9057      2.00000
      4      -5.8763      2.00000
      5      -5.7419      2.00000
      6      -5.6564      2.00000
      7      -5.6126      2.00000
      8      -5.5169      2.00000
      9      -5.4515      2.00000
     10      -5.3728      2.00000
     11      -4.8436      2.00000
     12      -3.1603      2.00000
     13       1.5438      2.00000
     14       2.9461      2.00000
     15       3.2292      2.00000
     16       5.0639      2.00000
     17       5.6085      2.00000
     18       6.9132      2.00000
     19      12.1894      0.00000
     20      12.8883      0.00000
     21      15.8644      0.00000
     22      16.7120      0.00000
     23      17.9341      0.00000
     24      19.6837      0.00000
     25      21.3727      0.00000
     26      21.8298      0.00000
     27      24.3445      0.00000
     28      26.3553      0.00000
     29      27.8108      0.00000
     30      30.3407      0.00000
     31      31.5693      0.00000
     32      33.2969      0.00000

 k-point    87 :      -0.2500    0.2500    0.1667
  band No.  band energies     occupation 
      1      -8.6061      2.00000
      2      -7.8833      2.00000
      3      -5.8553      2.00000
      4      -5.8264      2.00000
      5      -5.7756      2.00000
      6      -5.6506      2.00000
      7      -5.6315      2.00000
      8      -5.5926      2.00000
      9      -5.5476      2.00000
     10      -5.3655      2.00000
     11      -5.2684      2.00000
     12      -3.4514      2.00000
     13       1.8867      2.00000
     14       3.3723      2.00000
     15       4.5083      2.00000
     16       5.1693      2.00000
     17       5.6108      2.00000
     18       7.2682      2.00000
     19      12.8907      0.00000
     20      13.2779      0.00000
     21      16.4829      0.00000
     22      17.2048      0.00000
     23      17.9671      0.00000
     24      19.8836      0.00000
     25      20.3857      0.00000
     26      20.7590      0.00000
     27      25.2014      0.00000
     28      25.5930      0.00000
     29      26.5941      0.00000
     30      29.1072      0.00000
     31      32.4482      0.00000
     32      33.2352      0.00000

 k-point    88 :      -0.1250    0.2500    0.1667
  band No.  band energies     occupation 
      1      -8.8658      2.00000
      2      -7.9385      2.00000
      3      -5.9093      2.00000
      4      -5.8332      2.00000
      5      -5.7570      2.00000
      6      -5.7091      2.00000
      7      -5.6473      2.00000
      8      -5.5839      2.00000
      9      -5.5611      2.00000
     10      -5.4362      2.00000
     11      -5.3541      2.00000
     12      -3.7837      2.00000
     13       1.3910      2.00000
     14       3.2554      2.00000
     15       4.4520      2.00000
     16       6.3179      2.00000
     17       6.8506      2.00000
     18       7.5419      2.00000
     19      13.4700      0.00000
     20      13.7075      0.00000
     21      16.7164      0.00000
     22      17.4903      0.00000
     23      18.4564      0.00000
     24      19.0289      0.00000
     25      20.8749      0.00000
     26      21.3782      0.00000
     27      24.4576      0.00000
     28      25.8047      0.00000
     29      27.2268      0.00000
     30      28.5587      0.00000
     31      30.1156      0.00000
     32      32.7581      0.00000

 k-point    89 :       0.0000    0.3750    0.1667
  band No.  band energies     occupation 
      1      -8.0954      2.00000
      2      -7.6158      2.00000
      3      -5.9245      2.00000
      4      -5.8368      2.00000
      5      -5.7850      2.00000
      6      -5.7201      2.00000
      7      -5.6332      2.00000
      8      -5.5957      2.00000
      9      -5.4896      2.00000
     10      -5.4118      2.00000
     11      -5.2586      2.00000
     12      -4.0466      2.00000
     13       0.4456      2.00000
     14       1.9652      2.00000
     15       3.2743      2.00000
     16       6.0974      2.00000
     17       7.1121      2.00000
     18       8.0637      2.00000
     19      14.0189      0.00000
     20      15.2882      0.00000
     21      16.3048      0.00000
     22      17.3011      0.00000
     23      18.0040      0.00000
     24      18.4435      0.00000
     25      22.4003      0.00000
     26      23.2337      0.00000
     27      23.7081      0.00000
     28      26.7371      0.00000
     29      27.8807      0.00000
     30      28.9598      0.00000
     31      30.3176      0.00000
     32      30.9614      0.00000

 k-point    90 :       0.1250    0.3750    0.1667
  band No.  band energies     occupation 
      1      -7.8839      2.00000
      2      -7.5789      2.00000
      3      -5.8888      2.00000
      4      -5.7832      2.00000
      5      -5.7507      2.00000
      6      -5.7221      2.00000
      7      -5.6611      2.00000
      8      -5.5623      2.00000
      9      -5.4834      2.00000
     10      -5.4214      2.00000
     11      -5.1438      2.00000
     12      -4.0186      2.00000
     13       0.5842      2.00000
     14       1.7913      2.00000
     15       3.6458      2.00000
     16       5.6338      2.00000
     17       5.8579      2.00000
     18       7.1684      2.00000
     19      14.4718      0.00000
     20      16.0769      0.00000
     21      16.4254      0.00000
     22      16.9432      0.00000
     23      18.2744      0.00000
     24      19.2450      0.00000
     25      20.7387      0.00000
     26      23.1527      0.00000
     27      23.6038      0.00000
     28      27.6703      0.00000
     29      28.5001      0.00000
     30      29.8970      0.00000
     31      30.6945      0.00000
     32      31.7933      0.00000

 k-point    91 :       0.2500    0.3750    0.1667
  band No.  band energies     occupation 
      1      -7.7381      2.00000
      2      -7.6393      2.00000
      3      -5.9248      2.00000
      4      -5.8333      2.00000
      5      -5.7499      2.00000
      6      -5.6359      2.00000
      7      -5.5867      2.00000
      8      -5.5216      2.00000
      9      -5.4676      2.00000
     10      -5.4153      2.00000
     11      -4.5235      2.00000
     12      -3.6404      2.00000
     13       1.1726      2.00000
     14       1.8892      2.00000
     15       3.1086      2.00000
     16       4.9547      2.00000
     17       5.2742      2.00000
     18       5.7935      2.00000
     19      14.1984      0.00000
     20      14.8773      0.00000
     21      15.3599      0.00000
     22      17.1036      0.00000
     23      18.2643      0.00000
     24      19.0771      0.00000
     25      21.5137      0.00000
     26      23.0413      0.00000
     27      24.0786      0.00000
     28      27.1407      0.00000
     29      29.1340      0.00000
     30      30.2900      0.00000
     31      31.1626      0.00000
     32      32.9085      0.00000

 k-point    92 :       0.3750    0.3750    0.1667
  band No.  band energies     occupation 
      1      -7.7817      2.00000
      2      -7.7266      2.00000
      3      -5.9516      2.00000
      4      -5.9023      2.00000
      5      -5.7351      2.00000
      6      -5.5984      2.00000
      7      -5.5244      2.00000
      8      -5.4831      2.00000
      9      -5.3862      2.00000
     10      -5.3614      2.00000
     11      -3.5322      2.00000
     12      -3.2759      2.00000
     13       1.5093      2.00000
     14       1.8817      2.00000
     15       2.4329      2.00000
     16       4.3278      2.00000
     17       5.1548      2.00000
     18       5.8160      2.00000
     19      12.2144      0.00000
     20      12.9208      0.00000
     21      14.4094      0.00000
     22      16.7825      0.00000
     23      18.8568      0.00000
     24      19.7684      0.00000
     25      22.4413      0.00000
     26      22.7617      0.00000
     27      24.1733      0.00000
     28      27.1069      0.00000
     29      29.6968      0.00000
     30      30.1953      0.00000
     31      30.6282      0.00000
     32      33.6123      0.00000

 k-point    93 :       0.5000    0.3750    0.1667
  band No.  band energies     occupation 
      1      -7.9451      2.00000
      2      -7.7738      2.00000
      3      -5.9438      2.00000
      4      -5.9331      2.00000
      5      -5.7066      2.00000
      6      -5.6223      2.00000
      7      -5.5188      2.00000
      8      -5.4739      2.00000
      9      -5.3167      2.00000
     10      -5.3057      2.00000
     11      -3.5444      2.00000
     12      -2.6706      2.00000
     13       1.4172      2.00000
     14       1.6913      2.00000
     15       3.4759      2.00000
     16       4.0796      2.00000
     17       4.8009      2.00000
     18       6.4431      2.00000
     19      10.5823      0.00000
     20      11.5214      0.00000
     21      14.3881      0.00000
     22      16.5113      0.00000
     23      18.9446      0.00000
     24      20.7554      0.00000
     25      21.5588      0.00000
     26      22.4160      0.00000
     27      24.3036      0.00000
     28      27.9007      0.00000
     29      29.2980      0.00000
     30      29.8987      0.00000
     31      31.6103      0.00000
     32      32.6884      0.00000

 k-point    94 :      -0.3750    0.3750    0.1667
  band No.  band energies     occupation 
      1      -8.0935      2.00000
      2      -7.7982      2.00000
      3      -5.9286      2.00000
      4      -5.9037      2.00000
      5      -5.7203      2.00000
      6      -5.6328      2.00000
      7      -5.5344      2.00000
      8      -5.4887      2.00000
      9      -5.3636      2.00000
     10      -5.3128      2.00000
     11      -4.2750      2.00000
     12      -2.6489      2.00000
     13       2.2699      2.00000
     14       2.2905      2.00000
     15       2.8836      2.00000
     16       4.7739      2.00000
     17       4.8077      2.00000
     18       6.6407      2.00000
     19      10.5698      0.00000
     20      11.5156      0.00000
     21      15.1010      0.00000
     22      16.7608      0.00000
     23      18.0991      0.00000
     24      20.9796      0.00000
     25      21.4861      0.00000
     26      22.0614      0.00000
     27      23.8657      0.00000
     28      27.5847      0.00000
     29      28.4967      0.00000
     30      30.4497      0.00000
     31      31.1104      0.00000
     32      32.7796      0.00000

 k-point    95 :      -0.2500    0.3750    0.1667
  band No.  band energies     occupation 
      1      -8.2003      2.00000
      2      -7.7714      2.00000
      3      -5.9057      2.00000
      4      -5.8763      2.00000
      5      -5.7419      2.00000
      6      -5.6564      2.00000
      7      -5.6126      2.00000
      8      -5.5169      2.00000
      9      -5.4515      2.00000
     10      -5.3728      2.00000
     11      -4.8436      2.00000
     12      -3.1603      2.00000
     13       1.5438      2.00000
     14       2.9461      2.00000
     15       3.2292      2.00000
     16       5.0639      2.00000
     17       5.6085      2.00000
     18       6.9132      2.00000
     19      12.1894      0.00000
     20      12.8883      0.00000
     21      15.8644      0.00000
     22      16.7120      0.00000
     23      17.9341      0.00000
     24      19.6837      0.00000
     25      21.3727      0.00000
     26      21.8298      0.00000
     27      24.3445      0.00000
     28      26.3553      0.00000
     29      27.8108      0.00000
     30      30.3407      0.00000
     31      31.5693      0.00000
     32      33.2969      0.00000

 k-point    96 :      -0.1250    0.3750    0.1667
  band No.  band energies     occupation 
      1      -8.2166      2.00000
      2      -7.6995      2.00000
      3      -5.9165      2.00000
      4      -5.8405      2.00000
      5      -5.8228      2.00000
      6      -5.7275      2.00000
      7      -5.6325      2.00000
      8      -5.5386      2.00000
      9      -5.4956      2.00000
     10      -5.4008      2.00000
     11      -5.1271      2.00000
     12      -3.6999      2.00000
     13       0.7770      2.00000
     14       2.4672      2.00000
     15       3.1790      2.00000
     16       6.1246      2.00000
     17       6.8695      2.00000
     18       7.3603      2.00000
     19      14.1471      0.00000
     20      14.6237      0.00000
     21      15.6658      0.00000
     22      16.6992      0.00000
     23      17.8339      0.00000
     24      18.1571      0.00000
     25      21.9461      0.00000
     26      22.3399      0.00000
     27      25.2368      0.00000
     28      25.9957      0.00000
     29      27.1873      0.00000
     30      29.5757      0.00000
     31      30.8703      0.00000
     32      32.3274      0.00000

 k-point    97 :      -0.0000    0.5000    0.1667
  band No.  band energies     occupation 
      1      -7.7059      2.00000
      2      -7.5467      2.00000
      3      -5.9084      2.00000
      4      -5.8119      2.00000
      5      -5.7627      2.00000
      6      -5.7578      2.00000
      7      -5.6197      2.00000
      8      -5.6119      2.00000
      9      -5.4529      2.00000
     10      -5.4087      2.00000
     11      -4.7629      2.00000
     12      -4.5862      2.00000
     13       0.3748      2.00000
     14       0.8767      2.00000
     15       4.1660      2.00000
     16       5.1081      2.00000
     17       7.2438      2.00000
     18       8.0833      2.00000
     19      14.5998      0.00000
     20      14.7395      0.00000
     21      17.0552      0.00000
     22      17.2272      0.00000
     23      17.8474      0.00000
     24      17.8957      0.00000
     25      22.0320      0.00000
     26      22.7094      0.00000
     27      24.7160      0.00000
     28      25.6950      0.00000
     29      28.3805      0.00000
     30      29.3329      0.00000
     31      30.4737      0.00000
     32      31.2983      0.00000

 k-point    98 :       0.1250    0.5000    0.1667
  band No.  band energies     occupation 
      1      -7.7447      2.00000
      2      -7.5889      2.00000
      3      -5.8963      2.00000
      4      -5.8327      2.00000
      5      -5.8033      2.00000
      6      -5.7492      2.00000
      7      -5.6282      2.00000
      8      -5.5399      2.00000
      9      -5.4613      2.00000
     10      -5.3919      2.00000
     11      -4.6071      2.00000
     12      -4.2460      2.00000
     13       0.5235      2.00000
     14       1.1276      2.00000
     15       4.1760      2.00000
     16       5.1263      2.00000
     17       6.4028      2.00000
     18       7.3329      2.00000
     19      14.5794      0.00000
     20      15.1662      0.00000
     21      16.0588      0.00000
     22      16.8330      0.00000
     23      17.7190      0.00000
     24      18.1674      0.00000
     25      21.1454      0.00000
     26      23.2584      0.00000
     27      24.5225      0.00000
     28      26.3579      0.00000
     29      28.4495      0.00000
     30      30.0412      0.00000
     31      31.2819      0.00000
     32      31.8492      0.00000

 k-point    99 :       0.2500    0.5000    0.1667
  band No.  band energies     occupation 
      1      -7.8461      2.00000
      2      -7.6830      2.00000
      3      -5.9391      2.00000
      4      -5.8898      2.00000
      5      -5.7357      2.00000
      6      -5.6461      2.00000
      7      -5.5961      2.00000
      8      -5.4971      2.00000
      9      -5.4310      2.00000
     10      -5.3673      2.00000
     11      -4.1695      2.00000
     12      -3.4762      2.00000
     13       0.9951      2.00000
     14       1.6817      2.00000
     15       3.9061      2.00000
     16       4.3839      2.00000
     17       5.6985      2.00000
     18       6.2634      2.00000
     19      12.7221      0.00000
     20      13.5271      0.00000
     21      15.2458      0.00000
     22      16.6319      0.00000
     23      18.3403      0.00000
     24      19.4367      0.00000
     25      21.5284      0.00000
     26      22.7178      0.00000
     27      24.2178      0.00000
     28      26.6459      0.00000
     29      29.0892      0.00000
     30      30.5798      0.00000
     31      31.1306      0.00000
     32      33.5941      0.00000

 k-point   100 :       0.3750    0.5000    0.1667
  band No.  band energies     occupation 
      1      -7.9451      2.00000
      2      -7.7738      2.00000
      3      -5.9438      2.00000
      4      -5.9331      2.00000
      5      -5.7066      2.00000
      6      -5.6223      2.00000
      7      -5.5188      2.00000
      8      -5.4739      2.00000
      9      -5.3166      2.00000
     10      -5.3057      2.00000
     11      -3.5443      2.00000
     12      -2.6706      2.00000
     13       1.4172      2.00000
     14       1.6913      2.00000
     15       3.4759      2.00000
     16       4.0796      2.00000
     17       4.8010      2.00000
     18       6.4431      2.00000
     19      10.5824      0.00000
     20      11.5214      0.00000
     21      14.3881      0.00000
     22      16.5113      0.00000
     23      18.9445      0.00000
     24      20.7554      0.00000
     25      21.5588      0.00000
     26      22.4160      0.00000
     27      24.3035      0.00000
     28      27.9007      0.00000
     29      29.2980      0.00000
     30      29.8989      0.00000
     31      31.6103      0.00000
     32      32.6884      0.00000

 k-point   101 :       0.5000    0.5000    0.1667
  band No.  band energies     occupation 
      1      -7.9838      2.00000
      2      -7.8110      2.00000
      3      -5.9630      2.00000
      4      -5.9305      2.00000
      5      -5.6874      2.00000
      6      -5.6302      2.00000
      7      -5.5033      2.00000
      8      -5.4661      2.00000
      9      -5.2636      2.00000
     10      -5.2518      2.00000
     11      -3.1344      2.00000
     12      -2.3390      2.00000
     13       0.9517      2.00000
     14       1.8676      2.00000
     15       3.5083      2.00000
     16       4.4119      2.00000
     17       4.4433      2.00000
     18       6.3739      2.00000
     19       9.7245      0.00000
     20      10.7067      0.00000
     21      14.0123      0.00000
     22      16.3415      0.00000
     23      19.3527      0.00000
     24      20.8435      0.00000
     25      21.7917      0.00000
     26      21.9387      0.00000
     27      24.8272      0.00000
     28      28.6573      0.00000
     29      29.3431      0.00000
     30      29.5969      0.00000
     31      31.8136      0.00000
     32      32.3743      0.00000

 k-point   102 :      -0.3750    0.5000    0.1667
  band No.  band energies     occupation 
      1      -7.9451      2.00000
      2      -7.7738      2.00000
      3      -5.9438      2.00000
      4      -5.9331      2.00000
      5      -5.7066      2.00000
      6      -5.6223      2.00000
      7      -5.5188      2.00000
      8      -5.4739      2.00000
      9      -5.3167      2.00000
     10      -5.3057      2.00000
     11      -3.5444      2.00000
     12      -2.6706      2.00000
     13       1.4172      2.00000
     14       1.6913      2.00000
     15       3.4759      2.00000
     16       4.0796      2.00000
     17       4.8009      2.00000
     18       6.4431      2.00000
     19      10.5823      0.00000
     20      11.5214      0.00000
     21      14.3881      0.00000
     22      16.5113      0.00000
     23      18.9446      0.00000
     24      20.7554      0.00000
     25      21.5588      0.00000
     26      22.4160      0.00000
     27      24.3036      0.00000
     28      27.9007      0.00000
     29      29.2980      0.00000
     30      29.8987      0.00000
     31      31.6103      0.00000
     32      32.6884      0.00000

 k-point   103 :      -0.2500    0.5000    0.1667
  band No.  band energies     occupation 
      1      -7.8461      2.00000
      2      -7.6830      2.00000
      3      -5.9391      2.00000
      4      -5.8898      2.00000
      5      -5.7357      2.00000
      6      -5.6461      2.00000
      7      -5.5961      2.00000
      8      -5.4971      2.00000
      9      -5.4311      2.00000
     10      -5.3673      2.00000
     11      -4.1695      2.00000
     12      -3.4762      2.00000
     13       0.9951      2.00000
     14       1.6817      2.00000
     15       3.9061      2.00000
     16       4.3839      2.00000
     17       5.6985      2.00000
     18       6.2634      2.00000
     19      12.7220      0.00000
     20      13.5272      0.00000
     21      15.2459      0.00000
     22      16.6321      0.00000
     23      18.3402      0.00000
     24      19.4368      0.00000
     25      21.5282      0.00000
     26      22.7179      0.00000
     27      24.2180      0.00000
     28      26.6459      0.00000
     29      29.0891      0.00000
     30      30.5795      0.00000
     31      31.1304      0.00000
     32      33.5941      0.00000

 k-point   104 :      -0.1250    0.5000    0.1667
  band No.  band energies     occupation 
      1      -7.7447      2.00000
      2      -7.5889      2.00000
      3      -5.8963      2.00000
      4      -5.8327      2.00000
      5      -5.8033      2.00000
      6      -5.7492      2.00000
      7      -5.6282      2.00000
      8      -5.5400      2.00000
      9      -5.4613      2.00000
     10      -5.3919      2.00000
     11      -4.6071      2.00000
     12      -4.2460      2.00000
     13       0.5235      2.00000
     14       1.1276      2.00000
     15       4.1760      2.00000
     16       5.1264      2.00000
     17       6.4028      2.00000
     18       7.3328      2.00000
     19      14.5792      0.00000
     20      15.1663      0.00000
     21      16.0589      0.00000
     22      16.8330      0.00000
     23      17.7189      0.00000
     24      18.1674      0.00000
     25      21.1453      0.00000
     26      23.2585      0.00000
     27      24.5227      0.00000
     28      26.3580      0.00000
     29      28.4495      0.00000
     30      30.0412      0.00000
     31      31.2818      0.00000
     32      31.8491      0.00000

 k-point   105 :       0.0000   -0.3750    0.1667
  band No.  band energies     occupation 
      1      -8.0954      2.00000
      2      -7.6158      2.00000
      3      -5.9245      2.00000
      4      -5.8368      2.00000
      5      -5.7850      2.00000
      6      -5.7201      2.00000
      7      -5.6332      2.00000
      8      -5.5957      2.00000
      9      -5.4896      2.00000
     10      -5.4118      2.00000
     11      -5.2585      2.00000
     12      -4.0466      2.00000
     13       0.4456      2.00000
     14       1.9652      2.00000
     15       3.2743      2.00000
     16       6.0974      2.00000
     17       7.1121      2.00000
     18       8.0637      2.00000
     19      14.0188      0.00000
     20      15.2884      0.00000
     21      16.3049      0.00000
     22      17.3011      0.00000
     23      18.0038      0.00000
     24      18.4435      0.00000
     25      22.4003      0.00000
     26      23.2336      0.00000
     27      23.7083      0.00000
     28      26.7371      0.00000
     29      27.8808      0.00000
     30      28.9598      0.00000
     31      30.3177      0.00000
     32      30.9613      0.00000

 k-point   106 :       0.1250   -0.3750    0.1667
  band No.  band energies     occupation 
      1      -8.2165      2.00000
      2      -7.6995      2.00000
      3      -5.9165      2.00000
      4      -5.8405      2.00000
      5      -5.8228      2.00000
      6      -5.7275      2.00000
      7      -5.6325      2.00000
      8      -5.5386      2.00000
      9      -5.4955      2.00000
     10      -5.4008      2.00000
     11      -5.1271      2.00000
     12      -3.6999      2.00000
     13       0.7769      2.00000
     14       2.4673      2.00000
     15       3.1791      2.00000
     16       6.1246      2.00000
     17       6.8696      2.00000
     18       7.3603      2.00000
     19      14.1471      0.00000
     20      14.6237      0.00000
     21      15.6658      0.00000
     22      16.6992      0.00000
     23      17.8339      0.00000
     24      18.1570      0.00000
     25      21.9462      0.00000
     26      22.3398      0.00000
     27      25.2368      0.00000
     28      25.9955      0.00000
     29      27.1873      0.00000
     30      29.5758      0.00000
     31      30.8703      0.00000
     32      32.3273      0.00000

 k-point   107 :       0.2500   -0.3750    0.1667
  band No.  band energies     occupation 
      1      -8.2002      2.00000
      2      -7.7714      2.00000
      3      -5.9057      2.00000
      4      -5.8763      2.00000
      5      -5.7419      2.00000
      6      -5.6564      2.00000
      7      -5.6126      2.00000
      8      -5.5168      2.00000
      9      -5.4515      2.00000
     10      -5.3728      2.00000
     11      -4.8436      2.00000
     12      -3.1603      2.00000
     13       1.5437      2.00000
     14       2.9461      2.00000
     15       3.2293      2.00000
     16       5.0639      2.00000
     17       5.6086      2.00000
     18       6.9132      2.00000
     19      12.1894      0.00000
     20      12.8883      0.00000
     21      15.8643      0.00000
     22      16.7119      0.00000
     23      17.9341      0.00000
     24      19.6837      0.00000
     25      21.3726      0.00000
     26      21.8299      0.00000
     27      24.3443      0.00000
     28      26.3554      0.00000
     29      27.8109      0.00000
     30      30.3408      0.00000
     31      31.5698      0.00000
     32      33.2968      0.00000

 k-point   108 :       0.3750   -0.3750    0.1667
  band No.  band energies     occupation 
      1      -8.0935      2.00000
      2      -7.7982      2.00000
      3      -5.9286      2.00000
      4      -5.9037      2.00000
      5      -5.7203      2.00000
      6      -5.6328      2.00000
      7      -5.5344      2.00000
      8      -5.4887      2.00000
      9      -5.3636      2.00000
     10      -5.3128      2.00000
     11      -4.2750      2.00000
     12      -2.6489      2.00000
     13       2.2699      2.00000
     14       2.2905      2.00000
     15       2.8836      2.00000
     16       4.7739      2.00000
     17       4.8078      2.00000
     18       6.6407      2.00000
     19      10.5699      0.00000
     20      11.5155      0.00000
     21      15.1010      0.00000
     22      16.7608      0.00000
     23      18.0989      0.00000
     24      20.9798      0.00000
     25      21.4861      0.00000
     26      22.0614      0.00000
     27      23.8656      0.00000
     28      27.5847      0.00000
     29      28.4968      0.00000
     30      30.4501      0.00000
     31      31.1105      0.00000
     32      32.7795      0.00000

 k-point   109 :       0.5000   -0.3750    0.1667
  band No.  band energies     occupation 
      1      -7.9451      2.00000
      2      -7.7738      2.00000
      3      -5.9438      2.00000
      4      -5.9331      2.00000
      5      -5.7066      2.00000
      6      -5.6223      2.00000
      7      -5.5188      2.00000
      8      -5.4739      2.00000
      9      -5.3166      2.00000
     10      -5.3057      2.00000
     11      -3.5443      2.00000
     12      -2.6706      2.00000
     13       1.4172      2.00000
     14       1.6913      2.00000
     15       3.4759      2.00000
     16       4.0796      2.00000
     17       4.8010      2.00000
     18       6.4431      2.00000
     19      10.5824      0.00000
     20      11.5214      0.00000
     21      14.3881      0.00000
     22      16.5113      0.00000
     23      18.9445      0.00000
     24      20.7554      0.00000
     25      21.5588      0.00000
     26      22.4160      0.00000
     27      24.3035      0.00000
     28      27.9007      0.00000
     29      29.2980      0.00000
     30      29.8989      0.00000
     31      31.6103      0.00000
     32      32.6884      0.00000

 k-point   110 :      -0.3750   -0.3750    0.1667
  band No.  band energies     occupation 
      1      -7.7817      2.00000
      2      -7.7266      2.00000
      3      -5.9516      2.00000
      4      -5.9023      2.00000
      5      -5.7351      2.00000
      6      -5.5984      2.00000
      7      -5.5244      2.00000
      8      -5.4831      2.00000
      9      -5.3862      2.00000
     10      -5.3614      2.00000
     11      -3.5322      2.00000
     12      -3.2759      2.00000
     13       1.5093      2.00000
     14       1.8817      2.00000
     15       2.4329      2.00000
     16       4.3278      2.00000
     17       5.1548      2.00000
     18       5.8160      2.00000
     19      12.2144      0.00000
     20      12.9208      0.00000
     21      14.4094      0.00000
     22      16.7825      0.00000
     23      18.8568      0.00000
     24      19.7684      0.00000
     25      22.4413      0.00000
     26      22.7617      0.00000
     27      24.1733      0.00000
     28      27.1069      0.00000
     29      29.6968      0.00000
     30      30.1953      0.00000
     31      30.6282      0.00000
     32      33.6123      0.00000

 k-point   111 :      -0.2500   -0.3750    0.1667
  band No.  band energies     occupation 
      1      -7.7381      2.00000
      2      -7.6393      2.00000
      3      -5.9248      2.00000
      4      -5.8333      2.00000
      5      -5.7499      2.00000
      6      -5.6359      2.00000
      7      -5.5868      2.00000
      8      -5.5216      2.00000
      9      -5.4676      2.00000
     10      -5.4152      2.00000
     11      -4.5235      2.00000
     12      -3.6404      2.00000
     13       1.1725      2.00000
     14       1.8892      2.00000
     15       3.1086      2.00000
     16       4.9547      2.00000
     17       5.2741      2.00000
     18       5.7935      2.00000
     19      14.1983      0.00000
     20      14.8773      0.00000
     21      15.3600      0.00000
     22      17.1037      0.00000
     23      18.2642      0.00000
     24      19.0771      0.00000
     25      21.5135      0.00000
     26      23.0415      0.00000
     27      24.0786      0.00000
     28      27.1408      0.00000
     29      29.1340      0.00000
     30      30.2899      0.00000
     31      31.1623      0.00000
     32      32.9086      0.00000

 k-point   112 :      -0.1250   -0.3750    0.1667
  band No.  band energies     occupation 
      1      -7.8839      2.00000
      2      -7.5789      2.00000
      3      -5.8888      2.00000
      4      -5.7832      2.00000
      5      -5.7506      2.00000
      6      -5.7221      2.00000
      7      -5.6611      2.00000
      8      -5.5623      2.00000
      9      -5.4834      2.00000
     10      -5.4214      2.00000
     11      -5.1438      2.00000
     12      -4.0187      2.00000
     13       0.5842      2.00000
     14       1.7914      2.00000
     15       3.6459      2.00000
     16       5.6338      2.00000
     17       5.8579      2.00000
     18       7.1684      2.00000
     19      14.4717      0.00000
     20      16.0770      0.00000
     21      16.4256      0.00000
     22      16.9433      0.00000
     23      18.2742      0.00000
     24      19.2449      0.00000
     25      20.7386      0.00000
     26      23.1528      0.00000
     27      23.6040      0.00000
     28      27.6703      0.00000
     29      28.5002      0.00000
     30      29.8971      0.00000
     31      30.6945      0.00000
     32      31.7931      0.00000

 k-point   113 :      -0.0000   -0.2500    0.1667
  band No.  band energies     occupation 
      1      -8.8341      2.00000
      2      -7.8844      2.00000
      3      -5.9477      2.00000
      4      -5.8673      2.00000
      5      -5.7710      2.00000
      6      -5.6484      2.00000
      7      -5.6393      2.00000
      8      -5.5989      2.00000
      9      -5.5518      2.00000
     10      -5.4768      2.00000
     11      -5.3902      2.00000
     12      -3.9697      2.00000
     13       1.1290      2.00000
     14       2.9445      2.00000
     15       3.8666      2.00000
     16       6.7700      2.00000
     17       7.1746      2.00000
     18       7.9919      2.00000
     19      13.3339      0.00000
     20      14.1210      0.00000
     21      16.9720      0.00000
     22      17.6567      0.00000
     23      18.5302      0.00000
     24      19.3455      0.00000
     25      22.2626      0.00000
     26      23.0129      0.00000
     27      23.8315      0.00000
     28      25.9313      0.00000
     29      27.2517      0.00000
     30      29.1360      0.00000
     31      29.9914      0.00000
     32      30.6603      0.00000

 k-point   114 :       0.1250   -0.2500    0.1667
  band No.  band energies     occupation 
      1      -8.8658      2.00000
      2      -7.9385      2.00000
      3      -5.9093      2.00000
      4      -5.8332      2.00000
      5      -5.7570      2.00000
      6      -5.7091      2.00000
      7      -5.6473      2.00000
      8      -5.5839      2.00000
      9      -5.5611      2.00000
     10      -5.4362      2.00000
     11      -5.3541      2.00000
     12      -3.7837      2.00000
     13       1.3910      2.00000
     14       3.2554      2.00000
     15       4.4520      2.00000
     16       6.3179      2.00000
     17       6.8506      2.00000
     18       7.5419      2.00000
     19      13.4700      0.00000
     20      13.7075      0.00000
     21      16.7165      0.00000
     22      17.4903      0.00000
     23      18.4563      0.00000
     24      19.0289      0.00000
     25      20.8748      0.00000
     26      21.3782      0.00000
     27      24.4575      0.00000
     28      25.8047      0.00000
     29      27.2267      0.00000
     30      28.5587      0.00000
     31      30.1157      0.00000
     32      32.7581      0.00000

 k-point   115 :       0.2500   -0.2500    0.1667
  band No.  band energies     occupation 
      1      -8.6061      2.00000
      2      -7.8833      2.00000
      3      -5.8553      2.00000
      4      -5.8264      2.00000
      5      -5.7756      2.00000
      6      -5.6506      2.00000
      7      -5.6315      2.00000
      8      -5.5926      2.00000
      9      -5.5476      2.00000
     10      -5.3655      2.00000
     11      -5.2684      2.00000
     12      -3.4515      2.00000
     13       1.8867      2.00000
     14       3.3723      2.00000
     15       4.5084      2.00000
     16       5.1694      2.00000
     17       5.6109      2.00000
     18       7.2681      2.00000
     19      12.8907      0.00000
     20      13.2779      0.00000
     21      16.4829      0.00000
     22      17.2047      0.00000
     23      17.9670      0.00000
     24      19.8837      0.00000
     25      20.3857      0.00000
     26      20.7589      0.00000
     27      25.2014      0.00000
     28      25.5928      0.00000
     29      26.5942      0.00000
     30      29.1073      0.00000
     31      32.4486      0.00000
     32      33.2351      0.00000

 k-point   116 :       0.3750   -0.2500    0.1667
  band No.  band energies     occupation 
      1      -8.2002      2.00000
      2      -7.7714      2.00000
      3      -5.9057      2.00000
      4      -5.8763      2.00000
      5      -5.7419      2.00000
      6      -5.6564      2.00000
      7      -5.6126      2.00000
      8      -5.5168      2.00000
      9      -5.4515      2.00000
     10      -5.3728      2.00000
     11      -4.8436      2.00000
     12      -3.1603      2.00000
     13       1.5437      2.00000
     14       2.9461      2.00000
     15       3.2293      2.00000
     16       5.0639      2.00000
     17       5.6086      2.00000
     18       6.9132      2.00000
     19      12.1894      0.00000
     20      12.8883      0.00000
     21      15.8643      0.00000
     22      16.7119      0.00000
     23      17.9341      0.00000
     24      19.6837      0.00000
     25      21.3726      0.00000
     26      21.8299      0.00000
     27      24.3443      0.00000
     28      26.3554      0.00000
     29      27.8109      0.00000
     30      30.3408      0.00000
     31      31.5698      0.00000
     32      33.2968      0.00000

 k-point   117 :       0.5000   -0.2500    0.1667
  band No.  band energies     occupation 
      1      -7.8461      2.00000
      2      -7.6830      2.00000
      3      -5.9391      2.00000
      4      -5.8898      2.00000
      5      -5.7357      2.00000
      6      -5.6461      2.00000
      7      -5.5961      2.00000
      8      -5.4971      2.00000
      9      -5.4310      2.00000
     10      -5.3673      2.00000
     11      -4.1695      2.00000
     12      -3.4762      2.00000
     13       0.9951      2.00000
     14       1.6817      2.00000
     15       3.9061      2.00000
     16       4.3839      2.00000
     17       5.6985      2.00000
     18       6.2634      2.00000
     19      12.7221      0.00000
     20      13.5271      0.00000
     21      15.2458      0.00000
     22      16.6319      0.00000
     23      18.3403      0.00000
     24      19.4367      0.00000
     25      21.5284      0.00000
     26      22.7178      0.00000
     27      24.2178      0.00000
     28      26.6459      0.00000
     29      29.0892      0.00000
     30      30.5798      0.00000
     31      31.1306      0.00000
     32      33.5941      0.00000

 k-point   118 :      -0.3750   -0.2500    0.1667
  band No.  band energies     occupation 
      1      -7.7381      2.00000
      2      -7.6393      2.00000
      3      -5.9248      2.00000
      4      -5.8333      2.00000
      5      -5.7499      2.00000
      6      -5.6359      2.00000
      7      -5.5867      2.00000
      8      -5.5216      2.00000
      9      -5.4676      2.00000
     10      -5.4153      2.00000
     11      -4.5235      2.00000
     12      -3.6404      2.00000
     13       1.1726      2.00000
     14       1.8892      2.00000
     15       3.1086      2.00000
     16       4.9547      2.00000
     17       5.2742      2.00000
     18       5.7935      2.00000
     19      14.1984      0.00000
     20      14.8773      0.00000
     21      15.3599      0.00000
     22      17.1036      0.00000
     23      18.2643      0.00000
     24      19.0771      0.00000
     25      21.5137      0.00000
     26      23.0413      0.00000
     27      24.0786      0.00000
     28      27.1407      0.00000
     29      29.1340      0.00000
     30      30.2900      0.00000
     31      31.1626      0.00000
     32      32.9085      0.00000

 k-point   119 :      -0.2500   -0.2500    0.1667
  band No.  band energies     occupation 
      1      -8.0317      2.00000
      2      -7.6256      2.00000
      3      -5.8699      2.00000
      4      -5.7567      2.00000
      5      -5.7387      2.00000
      6      -5.6501      2.00000
      7      -5.6097      2.00000
      8      -5.6056      2.00000
      9      -5.5213      2.00000
     10      -5.4746      2.00000
     11      -5.2695      2.00000
     12      -3.7425      2.00000
     13       1.3636      2.00000
     14       2.8570      2.00000
     15       3.4199      2.00000
     16       3.9371      2.00000
     17       5.8371      2.00000
     18       6.3652      2.00000
     19      15.0439      0.00000
     20      15.6790      0.00000
     21      16.3544      0.00000
     22      17.6075      0.00000
     23      18.3032      0.00000
     24      18.9486      0.00000
     25      22.1606      0.00000
     26      22.4520      0.00000
     27      23.3577      0.00000
     28      27.4444      0.00000
     29      29.4037      0.00000
     30      29.9323      0.00000
     31      31.4258      0.00000
     32      32.9857      0.00000

 k-point   120 :      -0.1250   -0.2500    0.1667
  band No.  band energies     occupation 
      1      -8.4992      2.00000
      2      -7.7437      2.00000
      3      -5.8770      2.00000
      4      -5.8150      2.00000
      5      -5.7666      2.00000
      6      -5.6705      2.00000
      7      -5.6545      2.00000
      8      -5.5871      2.00000
      9      -5.5609      2.00000
     10      -5.4847      2.00000
     11      -5.4270      2.00000
     12      -3.9504      2.00000
     13       1.1621      2.00000
     14       3.1306      2.00000
     15       3.4325      2.00000
     16       5.2845      2.00000
     17       6.8124      2.00000
     18       7.1403      2.00000
     19      14.1737      0.00000
     20      15.5356      0.00000
     21      17.0118      0.00000
     22      17.6373      0.00000
     23      18.3853      0.00000
     24      19.3223      0.00000
     25      21.8954      0.00000
     26      23.6372      0.00000
     27      23.9021      0.00000
     28      26.5842      0.00000
     29      27.7870      0.00000
     30      29.1187      0.00000
     31      31.2654      0.00000
     32      31.9788      0.00000

 k-point   121 :       0.0000   -0.1250    0.1667
  band No.  band energies     occupation 
      1      -9.4280      2.00000
      2      -8.1672      2.00000
      3      -5.9458      2.00000
      4      -5.8788      2.00000
      5      -5.8186      2.00000
      6      -5.6473      2.00000
      7      -5.6295      2.00000
      8      -5.5703      2.00000
      9      -5.5363      2.00000
     10      -5.4598      2.00000
     11      -5.3861      2.00000
     12      -4.1333      2.00000
     13       0.9004      2.00000
     14       4.4201      2.00000
     15       5.8145      2.00000
     16       6.7032      2.00000
     17       7.5348      2.00000
     18       8.0185      2.00000
     19      12.3166      0.00000
     20      12.4845      0.00000
     21      17.7039      0.00000
     22      18.5545      0.00000
     23      19.0048      0.00000
     24      20.1874      0.00000
     25      22.2005      0.00000
     26      22.7311      0.00000
     27      23.3577      0.00000
     28      25.0070      0.00000
     29      27.1748      0.00000
     30      28.3347      0.00000
     31      29.8060      0.00000
     32      31.3664      0.00000

 k-point   122 :       0.1250   -0.1250    0.1667
  band No.  band energies     occupation 
      1      -9.3313      2.00000
      2      -8.1376      2.00000
      3      -5.8958      2.00000
      4      -5.8729      2.00000
      5      -5.7827      2.00000
      6      -5.6796      2.00000
      7      -5.6354      2.00000
      8      -5.6036      2.00000
      9      -5.5587      2.00000
     10      -5.4606      2.00000
     11      -5.3646      2.00000
     12      -4.0192      2.00000
     13       1.0494      2.00000
     14       4.6126      2.00000
     15       6.1205      2.00000
     16       6.4212      2.00000
     17       6.5318      2.00000
     18       7.8469      2.00000
     19      12.6629      0.00000
     20      12.8188      0.00000
     21      18.0347      0.00000
     22      18.3696      0.00000
     23      18.9495      0.00000
     24      20.1548      0.00000
     25      20.4820      0.00000
     26      21.0117      0.00000
     27      23.1199      0.00000
     28      25.2710      0.00000
     29      27.7596      0.00000
     30      29.0107      0.00000
     31      29.5367      0.00000
     32      30.7764      0.00000

 k-point   123 :       0.2500   -0.1250    0.1667
  band No.  band energies     occupation 
      1      -8.8658      2.00000
      2      -7.9385      2.00000
      3      -5.9093      2.00000
      4      -5.8332      2.00000
      5      -5.7570      2.00000
      6      -5.7091      2.00000
      7      -5.6473      2.00000
      8      -5.5839      2.00000
      9      -5.5611      2.00000
     10      -5.4362      2.00000
     11      -5.3541      2.00000
     12      -3.7837      2.00000
     13       1.3910      2.00000
     14       3.2554      2.00000
     15       4.4520      2.00000
     16       6.3179      2.00000
     17       6.8506      2.00000
     18       7.5419      2.00000
     19      13.4700      0.00000
     20      13.7075      0.00000
     21      16.7165      0.00000
     22      17.4903      0.00000
     23      18.4563      0.00000
     24      19.0289      0.00000
     25      20.8748      0.00000
     26      21.3782      0.00000
     27      24.4575      0.00000
     28      25.8047      0.00000
     29      27.2267      0.00000
     30      28.5587      0.00000
     31      30.1157      0.00000
     32      32.7581      0.00000

 k-point   124 :       0.3750   -0.1250    0.1667
  band No.  band energies     occupation 
      1      -8.2165      2.00000
      2      -7.6995      2.00000
      3      -5.9165      2.00000
      4      -5.8405      2.00000
      5      -5.8228      2.00000
      6      -5.7275      2.00000
      7      -5.6325      2.00000
      8      -5.5386      2.00000
      9      -5.4955      2.00000
     10      -5.4008      2.00000
     11      -5.1271      2.00000
     12      -3.6999      2.00000
     13       0.7769      2.00000
     14       2.4673      2.00000
     15       3.1791      2.00000
     16       6.1246      2.00000
     17       6.8696      2.00000
     18       7.3603      2.00000
     19      14.1471      0.00000
     20      14.6237      0.00000
     21      15.6658      0.00000
     22      16.6992      0.00000
     23      17.8339      0.00000
     24      18.1570      0.00000
     25      21.9462      0.00000
     26      22.3398      0.00000
     27      25.2368      0.00000
     28      25.9955      0.00000
     29      27.1873      0.00000
     30      29.5758      0.00000
     31      30.8703      0.00000
     32      32.3273      0.00000

 k-point   125 :       0.5000   -0.1250    0.1667
  band No.  band energies     occupation 
      1      -7.7447      2.00000
      2      -7.5889      2.00000
      3      -5.8963      2.00000
      4      -5.8327      2.00000
      5      -5.8033      2.00000
      6      -5.7492      2.00000
      7      -5.6282      2.00000
      8      -5.5399      2.00000
      9      -5.4613      2.00000
     10      -5.3919      2.00000
     11      -4.6071      2.00000
     12      -4.2460      2.00000
     13       0.5235      2.00000
     14       1.1276      2.00000
     15       4.1760      2.00000
     16       5.1263      2.00000
     17       6.4028      2.00000
     18       7.3329      2.00000
     19      14.5794      0.00000
     20      15.1662      0.00000
     21      16.0588      0.00000
     22      16.8330      0.00000
     23      17.7190      0.00000
     24      18.1674      0.00000
     25      21.1454      0.00000
     26      23.2584      0.00000
     27      24.5225      0.00000
     28      26.3579      0.00000
     29      28.4495      0.00000
     30      30.0412      0.00000
     31      31.2819      0.00000
     32      31.8492      0.00000

 k-point   126 :      -0.3750   -0.1250    0.1667
  band No.  band energies     occupation 
      1      -7.8839      2.00000
      2      -7.5789      2.00000
      3      -5.8888      2.00000
      4      -5.7832      2.00000
      5      -5.7507      2.00000
      6      -5.7221      2.00000
      7      -5.6611      2.00000
      8      -5.5623      2.00000
      9      -5.4834      2.00000
     10      -5.4214      2.00000
     11      -5.1438      2.00000
     12      -4.0186      2.00000
     13       0.5842      2.00000
     14       1.7913      2.00000
     15       3.6458      2.00000
     16       5.6338      2.00000
     17       5.8579      2.00000
     18       7.1684      2.00000
     19      14.4718      0.00000
     20      16.0769      0.00000
     21      16.4254      0.00000
     22      16.9432      0.00000
     23      18.2744      0.00000
     24      19.2450      0.00000
     25      20.7387      0.00000
     26      23.1527      0.00000
     27      23.6038      0.00000
     28      27.6703      0.00000
     29      28.5001      0.00000
     30      29.8970      0.00000
     31      30.6945      0.00000
     32      31.7933      0.00000

 k-point   127 :      -0.2500   -0.1250    0.1667
  band No.  band energies     occupation 
      1      -8.4992      2.00000
      2      -7.7437      2.00000
      3      -5.8770      2.00000
      4      -5.8150      2.00000
      5      -5.7666      2.00000
      6      -5.6705      2.00000
      7      -5.6545      2.00000
      8      -5.5871      2.00000
      9      -5.5609      2.00000
     10      -5.4847      2.00000
     11      -5.4270      2.00000
     12      -3.9504      2.00000
     13       1.1621      2.00000
     14       3.1306      2.00000
     15       3.4325      2.00000
     16       5.2845      2.00000
     17       6.8125      2.00000
     18       7.1402      2.00000
     19      14.1738      0.00000
     20      15.5356      0.00000
     21      17.0117      0.00000
     22      17.6372      0.00000
     23      18.3855      0.00000
     24      19.3224      0.00000
     25      21.8954      0.00000
     26      23.6372      0.00000
     27      23.9022      0.00000
     28      26.5842      0.00000
     29      27.7870      0.00000
     30      29.1187      0.00000
     31      31.2651      0.00000
     32      31.9790      0.00000

 k-point   128 :      -0.1250   -0.1250    0.1667
  band No.  band energies     occupation 
      1      -9.1185      2.00000
      2      -8.0021      2.00000
      3      -5.9322      2.00000
      4      -5.8363      2.00000
      5      -5.8355      2.00000
      6      -5.6560      2.00000
      7      -5.6221      2.00000
      8      -5.5696      2.00000
      9      -5.5413      2.00000
     10      -5.4828      2.00000
     11      -5.4386      2.00000
     12      -4.0769      2.00000
     13       1.0855      2.00000
     14       3.8705      2.00000
     15       4.8870      2.00000
     16       5.7660      2.00000
     17       7.4560      2.00000
     18       7.4987      2.00000
     19      13.1909      0.00000
     20      13.9285      0.00000
     21      17.8310      0.00000
     22      18.1405      0.00000
     23      18.9427      0.00000
     24      18.9717      0.00000
     25      22.4769      0.00000
     26      23.5507      0.00000
     27      25.2866      0.00000
     28      25.3031      0.00000
     29      27.9543      0.00000
     30      28.0852      0.00000
     31      29.4069      0.00000
     32      31.7169      0.00000

 k-point   129 :      -0.0000   -0.0000    0.3333
  band No.  band energies     occupation 
      1      -9.3115      2.00000
      2      -8.4907      2.00000
      3      -5.9337      2.00000
      4      -5.8722      2.00000
      5      -5.8603      2.00000
      6      -5.6433      2.00000
      7      -5.5677      2.00000
      8      -5.5638      2.00000
      9      -5.5408      2.00000
     10      -5.4189      2.00000
     11      -5.4151      2.00000
     12      -5.0072      2.00000
     13       2.3538      2.00000
     14       5.5464      2.00000
     15       5.8187      2.00000
     16       6.5465      2.00000
     17       7.2999      2.00000
     18       7.9613      2.00000
     19      12.0098      0.00000
     20      12.5789      0.00000
     21      17.5869      0.00000
     22      18.0387      0.00000
     23      18.0640      0.00000
     24      19.9463      0.00000
     25      22.0398      0.00000
     26      22.2497      0.00000
     27      23.5716      0.00000
     28      26.1509      0.00000
     29      28.5474      0.00000
     30      28.8930      0.00000
     31      29.1422      0.00000
     32      31.4574      0.00000

 k-point   130 :       0.1250   -0.0000    0.3333
  band No.  band energies     occupation 
      1      -9.1072      2.00000
      2      -8.3464      2.00000
      3      -5.9338      2.00000
      4      -5.8771      2.00000
      5      -5.8321      2.00000
      6      -5.6507      2.00000
      7      -5.6027      2.00000
      8      -5.5760      2.00000
      9      -5.5311      2.00000
     10      -5.4514      2.00000
     11      -5.4158      2.00000
     12      -4.8870      2.00000
     13       2.3374      2.00000
     14       4.8846      2.00000
     15       4.9840      2.00000
     16       6.7308      2.00000
     17       7.0736      2.00000
     18       7.7537      2.00000
     19      12.9154      0.00000
     20      13.1265      0.00000
     21      17.2274      0.00000
     22      17.5434      0.00000
     23      18.3027      0.00000
     24      19.3385      0.00000
     25      22.3598      0.00000
     26      22.5962      0.00000
     27      23.9461      0.00000
     28      25.9540      0.00000
     29      26.7431      0.00000
     30      29.9546      0.00000
     31      30.5743      0.00000
     32      31.9508      0.00000

 k-point   131 :       0.2500   -0.0000    0.3333
  band No.  band energies     occupation 
      1      -8.5579      2.00000
      2      -7.9870      2.00000
      3      -5.9453      2.00000
      4      -5.8881      2.00000
      5      -5.7985      2.00000
      6      -5.6977      2.00000
      7      -5.6184      2.00000
      8      -5.5808      2.00000
      9      -5.5041      2.00000
     10      -5.4326      2.00000
     11      -5.3941      2.00000
     12      -4.6576      2.00000
     13       1.6259      2.00000
     14       3.0574      2.00000
     15       4.2901      2.00000
     16       6.8257      2.00000
     17       7.1403      2.00000
     18       7.7394      2.00000
     19      13.4856      0.00000
     20      14.4310      0.00000
     21      16.1572      0.00000
     22      17.1281      0.00000
     23      18.3668      0.00000
     24      18.9023      0.00000
     25      22.2305      0.00000
     26      22.7526      0.00000
     27      24.4910      0.00000
     28      26.6043      0.00000
     29      27.0971      0.00000
     30      28.9959      0.00000
     31      30.4443      0.00000
     32      32.1886      0.00000

 k-point   132 :       0.3750    0.0000    0.3333
  band No.  band energies     occupation 
      1      -7.9099      2.00000
      2      -7.6290      2.00000
      3      -5.9345      2.00000
      4      -5.8851      2.00000
      5      -5.8062      2.00000
      6      -5.7721      2.00000
      7      -5.5816      2.00000
      8      -5.5442      2.00000
      9      -5.4262      2.00000
     10      -5.4152      2.00000
     11      -5.2065      2.00000
     12      -4.4912      2.00000
     13       0.2689      2.00000
     14       1.2021      2.00000
     15       4.8096      2.00000
     16       6.5813      2.00000
     17       7.3426      2.00000
     18       7.8778      2.00000
     19      13.2515      0.00000
     20      14.3894      0.00000
     21      16.4219      0.00000
     22      17.6148      0.00000
     23      17.8874      0.00000
     24      18.5483      0.00000
     25      22.1473      0.00000
     26      22.4573      0.00000
     27      23.9583      0.00000
     28      26.4369      0.00000
     29      28.4716      0.00000
     30      29.4672      0.00000
     31      30.5335      0.00000
     32      31.3176      0.00000

 k-point   133 :       0.5000    0.0000    0.3333
  band No.  band energies     occupation 
      1      -7.5980      2.00000
      2      -7.5074      2.00000
      3      -5.9263      2.00000
      4      -5.8851      2.00000
      5      -5.7900      2.00000
      6      -5.7845      2.00000
      7      -5.5705      2.00000
      8      -5.5444      2.00000
      9      -5.4061      2.00000
     10      -5.3819      2.00000
     11      -4.7894      2.00000
     12      -4.6839      2.00000
     13      -0.1480      2.00000
     14       0.1903      2.00000
     15       5.4898      2.00000
     16       6.0679      2.00000
     17       7.4656      2.00000
     18       7.9239      2.00000
     19      13.3719      0.00000
     20      13.6611      0.00000
     21      17.3218      0.00000
     22      17.3500      0.00000
     23      18.1009      0.00000
     24      18.2991      0.00000
     25      21.9201      0.00000
     26      22.4056      0.00000
     27      23.9657      0.00000
     28      25.0341      0.00000
     29      28.9622      0.00000
     30      30.3979      0.00000
     31      30.9707      0.00000
     32      31.7423      0.00000

 k-point   134 :      -0.3750    0.0000    0.3333
  band No.  band energies     occupation 
      1      -7.9099      2.00000
      2      -7.6290      2.00000
      3      -5.9345      2.00000
      4      -5.8851      2.00000
      5      -5.8062      2.00000
      6      -5.7721      2.00000
      7      -5.5816      2.00000
      8      -5.5442      2.00000
      9      -5.4262      2.00000
     10      -5.4152      2.00000
     11      -5.2065      2.00000
     12      -4.4912      2.00000
     13       0.2689      2.00000
     14       1.2020      2.00000
     15       4.8096      2.00000
     16       6.5814      2.00000
     17       7.3426      2.00000
     18       7.8778      2.00000
     19      13.2516      0.00000
     20      14.3892      0.00000
     21      16.4218      0.00000
     22      17.6149      0.00000
     23      17.8875      0.00000
     24      18.5483      0.00000
     25      22.1472      0.00000
     26      22.4573      0.00000
     27      23.9582      0.00000
     28      26.4370      0.00000
     29      28.4715      0.00000
     30      29.4671      0.00000
     31      30.5336      0.00000
     32      31.3179      0.00000

 k-point   135 :      -0.2500   -0.0000    0.3333
  band No.  band energies     occupation 
      1      -8.5579      2.00000
      2      -7.9869      2.00000
      3      -5.9452      2.00000
      4      -5.8881      2.00000
      5      -5.7985      2.00000
      6      -5.6977      2.00000
      7      -5.6184      2.00000
      8      -5.5809      2.00000
      9      -5.5041      2.00000
     10      -5.4326      2.00000
     11      -5.3941      2.00000
     12      -4.6576      2.00000
     13       1.6259      2.00000
     14       3.0574      2.00000
     15       4.2901      2.00000
     16       6.8257      2.00000
     17       7.1403      2.00000
     18       7.7394      2.00000
     19      13.4857      0.00000
     20      14.4310      0.00000
     21      16.1570      0.00000
     22      17.1282      0.00000
     23      18.3669      0.00000
     24      18.9025      0.00000
     25      22.2305      0.00000
     26      22.7525      0.00000
     27      24.4909      0.00000
     28      26.6043      0.00000
     29      27.0971      0.00000
     30      28.9959      0.00000
     31      30.4444      0.00000
     32      32.1889      0.00000

 k-point   136 :      -0.1250   -0.0000    0.3333
  band No.  band energies     occupation 
      1      -9.1072      2.00000
      2      -8.3464      2.00000
      3      -5.9338      2.00000
      4      -5.8771      2.00000
      5      -5.8321      2.00000
      6      -5.6507      2.00000
      7      -5.6027      2.00000
      8      -5.5760      2.00000
      9      -5.5311      2.00000
     10      -5.4514      2.00000
     11      -5.4158      2.00000
     12      -4.8870      2.00000
     13       2.3374      2.00000
     14       4.8846      2.00000
     15       4.9840      2.00000
     16       6.7308      2.00000
     17       7.0736      2.00000
     18       7.7537      2.00000
     19      12.9155      0.00000
     20      13.1265      0.00000
     21      17.2274      0.00000
     22      17.5434      0.00000
     23      18.3027      0.00000
     24      19.3385      0.00000
     25      22.3597      0.00000
     26      22.5963      0.00000
     27      23.9462      0.00000
     28      25.9539      0.00000
     29      26.7431      0.00000
     30      29.9546      0.00000
     31      30.5743      0.00000
     32      31.9508      0.00000

 k-point   137 :       0.0000    0.1250    0.3333
  band No.  band energies     occupation 
      1      -9.1072      2.00000
      2      -8.3464      2.00000
      3      -5.9338      2.00000
      4      -5.8771      2.00000
      5      -5.8321      2.00000
      6      -5.6507      2.00000
      7      -5.6027      2.00000
      8      -5.5760      2.00000
      9      -5.5311      2.00000
     10      -5.4514      2.00000
     11      -5.4158      2.00000
     12      -4.8870      2.00000
     13       2.3374      2.00000
     14       4.8846      2.00000
     15       4.9840      2.00000
     16       6.7308      2.00000
     17       7.0736      2.00000
     18       7.7537      2.00000
     19      12.9155      0.00000
     20      13.1265      0.00000
     21      17.2274      0.00000
     22      17.5434      0.00000
     23      18.3027      0.00000
     24      19.3385      0.00000
     25      22.3597      0.00000
     26      22.5963      0.00000
     27      23.9462      0.00000
     28      25.9539      0.00000
     29      26.7431      0.00000
     30      29.9546      0.00000
     31      30.5743      0.00000
     32      31.9508      0.00000

 k-point   138 :       0.1250    0.1250    0.3333
  band No.  band energies     occupation 
      1      -8.8163      2.00000
      2      -8.1426      2.00000
      3      -5.9249      2.00000
      4      -5.8694      2.00000
      5      -5.8310      2.00000
      6      -5.6469      2.00000
      7      -5.5976      2.00000
      8      -5.5954      2.00000
      9      -5.5130      2.00000
     10      -5.4845      2.00000
     11      -5.4414      2.00000
     12      -4.7952      2.00000
     13       2.1218      2.00000
     14       4.0247      2.00000
     15       4.7419      2.00000
     16       6.0877      2.00000
     17       7.0974      2.00000
     18       7.0988      2.00000
     19      13.8023      0.00000
     20      14.2873      0.00000
     21      17.2579      0.00000
     22      17.3173      0.00000
     23      17.9929      0.00000
     24      18.4036      0.00000
     25      23.7169      0.00000
     26      23.9886      0.00000
     27      25.2893      0.00000
     28      25.3843      0.00000
     29      27.1789      0.00000
     30      29.3258      0.00000
     31      29.9850      0.00000
     32      31.1175      0.00000

 k-point   139 :       0.2500    0.1250    0.3333
  band No.  band energies     occupation 
      1      -8.2556      2.00000
      2      -7.8053      2.00000
      3      -5.8866      2.00000
      4      -5.8499      2.00000
      5      -5.7753      2.00000
      6      -5.6918      2.00000
      7      -5.6155      2.00000
      8      -5.5789      2.00000
      9      -5.5585      2.00000
     10      -5.4832      2.00000
     11      -5.3512      2.00000
     12      -4.5756      2.00000
     13       1.3737      2.00000
     14       2.6102      2.00000
     15       4.5452      2.00000
     16       5.7045      2.00000
     17       6.5158      2.00000
     18       7.1127      2.00000
     19      14.1655      0.00000
     20      15.7375      0.00000
     21      16.3002      0.00000
     22      17.4637      0.00000
     23      17.8114      0.00000
     24      18.4725      0.00000
     25      23.1655      0.00000
     26      23.8263      0.00000
     27      24.0468      0.00000
     28      27.3211      0.00000
     29      28.1255      0.00000
     30      28.7148      0.00000
     31      29.0505      0.00000
     32      31.1114      0.00000

 k-point   140 :       0.3750    0.1250    0.3333
  band No.  band energies     occupation 
      1      -7.7396      2.00000
      2      -7.5639      2.00000
      3      -5.9005      2.00000
      4      -5.8415      2.00000
      5      -5.7727      2.00000
      6      -5.7457      2.00000
      7      -5.6351      2.00000
      8      -5.5299      2.00000
      9      -5.4735      2.00000
     10      -5.4147      2.00000
     11      -5.0192      2.00000
     12      -4.3580      2.00000
     13       0.3004      2.00000
     14       1.0480      2.00000
     15       4.8903      2.00000
     16       6.1261      2.00000
     17       6.3744      2.00000
     18       6.9470      2.00000
     19      13.8832      0.00000
     20      14.9751      0.00000
     21      16.4807      0.00000
     22      17.4361      0.00000
     23      17.9851      0.00000
     24      18.7604      0.00000
     25      21.2949      0.00000
     26      23.0351      0.00000
     27      24.2028      0.00000
     28      26.5123      0.00000
     29      28.4984      0.00000
     30      29.7424      0.00000
     31      30.7197      0.00000
     32      31.2555      0.00000

 k-point   141 :       0.5000    0.1250    0.3333
  band No.  band energies     occupation 
      1      -7.6381      2.00000
      2      -7.5490      2.00000
      3      -5.9087      2.00000
      4      -5.8540      2.00000
      5      -5.8301      2.00000
      6      -5.8064      2.00000
      7      -5.6263      2.00000
      8      -5.5188      2.00000
      9      -5.4272      2.00000
     10      -5.3673      2.00000
     11      -4.5696      2.00000
     12      -4.3420      2.00000
     13       0.0483      2.00000
     14       0.4528      2.00000
     15       5.3959      2.00000
     16       5.8778      2.00000
     17       6.7659      2.00000
     18       7.0869      2.00000
     19      13.8971      0.00000
     20      14.0986      0.00000
     21      16.1339      0.00000
     22      16.8444      0.00000
     23      18.1011      0.00000
     24      18.6753      0.00000
     25      20.5529      0.00000
     26      22.3017      0.00000
     27      25.0896      0.00000
     28      26.0859      0.00000
     29      28.8434      0.00000
     30      29.8561      0.00000
     31      31.3662      0.00000
     32      32.0172      0.00000

 k-point   142 :      -0.3750    0.1250    0.3333
  band No.  band energies     occupation 
      1      -8.0253      2.00000
      2      -7.7208      2.00000
      3      -5.9177      2.00000
      4      -5.8693      2.00000
      5      -5.8423      2.00000
      6      -5.7844      2.00000
      7      -5.6358      2.00000
      8      -5.5348      2.00000
      9      -5.4483      2.00000
     10      -5.4001      2.00000
     11      -5.0024      2.00000
     12      -4.2138      2.00000
     13       0.7272      2.00000
     14       1.7539      2.00000
     15       4.6635      2.00000
     16       6.3921      2.00000
     17       6.9510      2.00000
     18       7.2374      2.00000
     19      13.7549      0.00000
     20      14.4966      0.00000
     21      15.1857      0.00000
     22      16.3491      0.00000
     23      18.3152      0.00000
     24      18.7930      0.00000
     25      21.0175      0.00000
     26      21.2085      0.00000
     27      25.8784      0.00000
     28      26.4381      0.00000
     29      27.9176      0.00000
     30      29.5365      0.00000
     31      31.2407      0.00000
     32      31.7643      0.00000

 k-point   143 :      -0.2500    0.1250    0.3333
  band No.  band energies     occupation 
      1      -8.5958      2.00000
      2      -8.0391      2.00000
      3      -5.9029      2.00000
      4      -5.8415      2.00000
      5      -5.7885      2.00000
      6      -5.7243      2.00000
      7      -5.6704      2.00000
      8      -5.6060      2.00000
      9      -5.5311      2.00000
     10      -5.4229      2.00000
     11      -5.2767      2.00000
     12      -4.5002      2.00000
     13       2.1817      2.00000
     14       3.7225      2.00000
     15       4.2447      2.00000
     16       6.3720      2.00000
     17       6.6376      2.00000
     18       7.3693      2.00000
     19      13.7471      0.00000
     20      14.2457      0.00000
     21      15.6331      0.00000
     22      16.5822      0.00000
     23      18.8958      0.00000
     24      19.3792      0.00000
     25      20.2747      0.00000
     26      21.0190      0.00000
     27      24.9651      0.00000
     28      26.6220      0.00000
     29      27.0729      0.00000
     30      28.1730      0.00000
     31      31.5656      0.00000
     32      32.4119      0.00000

 k-point   144 :      -0.1250    0.1250    0.3333
  band No.  band energies     occupation 
      1      -9.0205      2.00000
      2      -8.3007      2.00000
      3      -5.8792      2.00000
      4      -5.8551      2.00000
      5      -5.8133      2.00000
      6      -5.6985      2.00000
      7      -5.6292      2.00000
      8      -5.6008      2.00000
      9      -5.5744      2.00000
     10      -5.4203      2.00000
     11      -5.3829      2.00000
     12      -4.7733      2.00000
     13       2.5200      2.00000
     14       4.9789      2.00000
     15       5.3613      2.00000
     16       6.0784      2.00000
     17       6.5230      2.00000
     18       7.5892      2.00000
     19      13.1735      0.00000
     20      13.4792      0.00000
     21      16.8444      0.00000
     22      17.3885      0.00000
     23      18.7432      0.00000
     24      19.8750      0.00000
     25      20.5258      0.00000
     26      20.9937      0.00000
     27      23.6327      0.00000
     28      26.4358      0.00000
     29      26.8725      0.00000
     30      29.4861      0.00000
     31      30.5398      0.00000
     32      32.8404      0.00000

 k-point   145 :       0.0000    0.2500    0.3333
  band No.  band energies     occupation 
      1      -8.5579      2.00000
      2      -7.9869      2.00000
      3      -5.9452      2.00000
      4      -5.8881      2.00000
      5      -5.7985      2.00000
      6      -5.6977      2.00000
      7      -5.6184      2.00000
      8      -5.5809      2.00000
      9      -5.5041      2.00000
     10      -5.4326      2.00000
     11      -5.3941      2.00000
     12      -4.6576      2.00000
     13       1.6259      2.00000
     14       3.0574      2.00000
     15       4.2901      2.00000
     16       6.8257      2.00000
     17       7.1403      2.00000
     18       7.7394      2.00000
     19      13.4857      0.00000
     20      14.4310      0.00000
     21      16.1570      0.00000
     22      17.1282      0.00000
     23      18.3669      0.00000
     24      18.9025      0.00000
     25      22.2305      0.00000
     26      22.7525      0.00000
     27      24.4909      0.00000
     28      26.6043      0.00000
     29      27.0971      0.00000
     30      28.9959      0.00000
     31      30.4444      0.00000
     32      32.1889      0.00000

 k-point   146 :       0.1250    0.2500    0.3333
  band No.  band energies     occupation 
      1      -8.2556      2.00000
      2      -7.8053      2.00000
      3      -5.8866      2.00000
      4      -5.8499      2.00000
      5      -5.7753      2.00000
      6      -5.6918      2.00000
      7      -5.6155      2.00000
      8      -5.5789      2.00000
      9      -5.5585      2.00000
     10      -5.4832      2.00000
     11      -5.3512      2.00000
     12      -4.5756      2.00000
     13       1.3738      2.00000
     14       2.6101      2.00000
     15       4.5451      2.00000
     16       5.7045      2.00000
     17       6.5159      2.00000
     18       7.1127      2.00000
     19      14.1656      0.00000
     20      15.7375      0.00000
     21      16.3001      0.00000
     22      17.4637      0.00000
     23      17.8113      0.00000
     24      18.4726      0.00000
     25      23.1655      0.00000
     26      23.8263      0.00000
     27      24.0468      0.00000
     28      27.3211      0.00000
     29      28.1254      0.00000
     30      28.7148      0.00000
     31      29.0504      0.00000
     32      31.1116      0.00000

 k-point   147 :       0.2500    0.2500    0.3333
  band No.  band energies     occupation 
      1      -7.8628      2.00000
      2      -7.6269      2.00000
      3      -5.8647      2.00000
      4      -5.8249      2.00000
      5      -5.7188      2.00000
      6      -5.6547      2.00000
      7      -5.6271      2.00000
      8      -5.6258      2.00000
      9      -5.5265      2.00000
     10      -5.5067      2.00000
     11      -5.0625      2.00000
     12      -4.2328      2.00000
     13       1.2519      2.00000
     14       2.1287      2.00000
     15       3.8413      2.00000
     16       5.1469      2.00000
     17       5.4452      2.00000
     18       6.8773      2.00000
     19      15.0293      0.00000
     20      15.7256      0.00000
     21      16.3610      0.00000
     22      17.1458      0.00000
     23      17.2772      0.00000
     24      18.2725      0.00000
     25      22.7851      0.00000
     26      23.3646      0.00000
     27      23.5542      0.00000
     28      27.5869      0.00000
     29      28.5090      0.00000
     30      28.9044      0.00000
     31      31.0369      0.00000
     32      32.2537      0.00000

 k-point   148 :       0.3750    0.2500    0.3333
  band No.  band energies     occupation 
      1      -7.6462      2.00000
      2      -7.5911      2.00000
      3      -5.9161      2.00000
      4      -5.8592      2.00000
      5      -5.7829      2.00000
      6      -5.6675      2.00000
      7      -5.6035      2.00000
      8      -5.5588      2.00000
      9      -5.4553      2.00000
     10      -5.4122      2.00000
     11      -4.3581      2.00000
     12      -3.8418      2.00000
     13       0.8176      2.00000
     14       1.2467      2.00000
     15       3.4873      2.00000
     16       4.8080      2.00000
     17       6.0961      2.00000
     18       6.4646      2.00000
     19      14.4474      0.00000
     20      14.7837      0.00000
     21      15.6714      0.00000
     22      16.6107      0.00000
     23      17.1420      0.00000
     24      18.5654      0.00000
     25      21.8790      0.00000
     26      22.9686      0.00000
     27      24.3391      0.00000
     28      27.0461      0.00000
     29      28.1064      0.00000
     30      29.5998      0.00000
     31      32.5128      0.00000
     32      33.0181      0.00000

 k-point   149 :       0.5000    0.2500    0.3333
  band No.  band energies     occupation 
      1      -7.7432      2.00000
      2      -7.6481      2.00000
      3      -5.9362      2.00000
      4      -5.8943      2.00000
      5      -5.7777      2.00000
      6      -5.6783      2.00000
      7      -5.6227      2.00000
      8      -5.5572      2.00000
      9      -5.4003      2.00000
     10      -5.3577      2.00000
     11      -4.0453      2.00000
     12      -3.6270      2.00000
     13       0.6735      2.00000
     14       1.1628      2.00000
     15       4.1571      2.00000
     16       4.9571      2.00000
     17       5.7925      2.00000
     18       6.6900      2.00000
     19      12.9927      0.00000
     20      13.7420      0.00000
     21      15.2064      0.00000
     22      16.1854      0.00000
     23      18.2277      0.00000
     24      18.9622      0.00000
     25      21.1690      0.00000
     26      21.9210      0.00000
     27      24.6415      0.00000
     28      26.7403      0.00000
     29      28.5047      0.00000
     30      30.1660      0.00000
     31      31.5822      0.00000
     32      33.1574      0.00000

 k-point   150 :      -0.3750    0.2500    0.3333
  band No.  band energies     occupation 
      1      -8.0345      2.00000
      2      -7.7826      2.00000
      3      -5.9039      2.00000
      4      -5.8706      2.00000
      5      -5.7771      2.00000
      6      -5.6800      2.00000
      7      -5.6525      2.00000
      8      -5.5735      2.00000
      9      -5.4286      2.00000
     10      -5.3844      2.00000
     11      -4.6318      2.00000
     12      -3.7227      2.00000
     13       1.6297      2.00000
     14       2.5345      2.00000
     15       4.1764      2.00000
     16       5.0379      2.00000
     17       5.7293      2.00000
     18       6.7510      2.00000
     19      12.2864      0.00000
     20      13.3459      0.00000
     21      15.4381      0.00000
     22      16.3591      0.00000
     23      18.5831      0.00000
     24      19.7028      0.00000
     25      20.6692      0.00000
     26      21.0201      0.00000
     27      24.5748      0.00000
     28      26.5897      0.00000
     29      28.0909      0.00000
     30      29.0276      0.00000
     31      30.8880      0.00000
     32      33.1749      0.00000

 k-point   151 :      -0.2500    0.2500    0.3333
  band No.  band energies     occupation 
      1      -8.3759      2.00000
      2      -7.9456      2.00000
      3      -5.8445      2.00000
      4      -5.8155      2.00000
      5      -5.8059      2.00000
      6      -5.6786      2.00000
      7      -5.6750      2.00000
      8      -5.6390      2.00000
      9      -5.5175      2.00000
     10      -5.4155      2.00000
     11      -5.0707      2.00000
     12      -4.1610      2.00000
     13       2.7695      2.00000
     14       3.7901      2.00000
     15       4.1400      2.00000
     16       5.0669      2.00000
     17       5.7029      2.00000
     18       6.9986      2.00000
     19      12.9146      0.00000
     20      13.8696      0.00000
     21      15.5517      0.00000
     22      16.6285      0.00000
     23      18.7518      0.00000
     24      19.9133      0.00000
     25      20.1636      0.00000
     26      20.5552      0.00000
     27      25.3928      0.00000
     28      25.5983      0.00000
     29      27.4940      0.00000
     30      27.5182      0.00000
     31      31.4975      0.00000
     32      33.3271      0.00000

 k-point   152 :      -0.1250    0.2500    0.3333
  band No.  band energies     occupation 
      1      -8.5958      2.00000
      2      -8.0391      2.00000
      3      -5.9029      2.00000
      4      -5.8415      2.00000
      5      -5.7885      2.00000
      6      -5.7243      2.00000
      7      -5.6704      2.00000
      8      -5.6060      2.00000
      9      -5.5311      2.00000
     10      -5.4229      2.00000
     11      -5.2767      2.00000
     12      -4.5002      2.00000
     13       2.1817      2.00000
     14       3.7225      2.00000
     15       4.2447      2.00000
     16       6.3720      2.00000
     17       6.6376      2.00000
     18       7.3693      2.00000
     19      13.7471      0.00000
     20      14.2457      0.00000
     21      15.6331      0.00000
     22      16.5822      0.00000
     23      18.8958      0.00000
     24      19.3792      0.00000
     25      20.2747      0.00000
     26      21.0190      0.00000
     27      24.9651      0.00000
     28      26.6220      0.00000
     29      27.0729      0.00000
     30      28.1730      0.00000
     31      31.5656      0.00000
     32      32.4119      0.00000

 k-point   153 :      -0.0000    0.3750    0.3333
  band No.  band energies     occupation 
      1      -7.9099      2.00000
      2      -7.6290      2.00000
      3      -5.9345      2.00000
      4      -5.8851      2.00000
      5      -5.8062      2.00000
      6      -5.7721      2.00000
      7      -5.5816      2.00000
      8      -5.5442      2.00000
      9      -5.4262      2.00000
     10      -5.4152      2.00000
     11      -5.2065      2.00000
     12      -4.4912      2.00000
     13       0.2689      2.00000
     14       1.2020      2.00000
     15       4.8096      2.00000
     16       6.5814      2.00000
     17       7.3426      2.00000
     18       7.8778      2.00000
     19      13.2516      0.00000
     20      14.3892      0.00000
     21      16.4218      0.00000
     22      17.6149      0.00000
     23      17.8875      0.00000
     24      18.5483      0.00000
     25      22.1472      0.00000
     26      22.4573      0.00000
     27      23.9582      0.00000
     28      26.4370      0.00000
     29      28.4715      0.00000
     30      29.4671      0.00000
     31      30.5336      0.00000
     32      31.3179      0.00000

 k-point   154 :       0.1250    0.3750    0.3333
  band No.  band energies     occupation 
      1      -7.7396      2.00000
      2      -7.5639      2.00000
      3      -5.9005      2.00000
      4      -5.8415      2.00000
      5      -5.7726      2.00000
      6      -5.7457      2.00000
      7      -5.6351      2.00000
      8      -5.5299      2.00000
      9      -5.4735      2.00000
     10      -5.4147      2.00000
     11      -5.0192      2.00000
     12      -4.3580      2.00000
     13       0.3005      2.00000
     14       1.0480      2.00000
     15       4.8902      2.00000
     16       6.1261      2.00000
     17       6.3745      2.00000
     18       6.9469      2.00000
     19      13.8834      0.00000
     20      14.9749      0.00000
     21      16.4806      0.00000
     22      17.4362      0.00000
     23      17.9851      0.00000
     24      18.7605      0.00000
     25      21.2949      0.00000
     26      23.0351      0.00000
     27      24.2026      0.00000
     28      26.5122      0.00000
     29      28.4983      0.00000
     30      29.7425      0.00000
     31      30.7196      0.00000
     32      31.2557      0.00000

 k-point   155 :       0.2500    0.3750    0.3333
  band No.  band energies     occupation 
      1      -7.6462      2.00000
      2      -7.5911      2.00000
      3      -5.9161      2.00000
      4      -5.8592      2.00000
      5      -5.7829      2.00000
      6      -5.6675      2.00000
      7      -5.6035      2.00000
      8      -5.5588      2.00000
      9      -5.4553      2.00000
     10      -5.4122      2.00000
     11      -4.3581      2.00000
     12      -3.8418      2.00000
     13       0.8177      2.00000
     14       1.2467      2.00000
     15       3.4873      2.00000
     16       4.8080      2.00000
     17       6.0961      2.00000
     18       6.4646      2.00000
     19      14.4475      0.00000
     20      14.7837      0.00000
     21      15.6713      0.00000
     22      16.6107      0.00000
     23      17.1419      0.00000
     24      18.5655      0.00000
     25      21.8791      0.00000
     26      22.9685      0.00000
     27      24.3389      0.00000
     28      27.0461      0.00000
     29      28.1065      0.00000
     30      29.5998      0.00000
     31      32.5128      0.00000
     32      33.0181      0.00000

 k-point   156 :       0.3750    0.3750    0.3333
  band No.  band energies     occupation 
      1      -7.7073      2.00000
      2      -7.6737      2.00000
      3      -5.9346      2.00000
      4      -5.8477      2.00000
      5      -5.8466      2.00000
      6      -5.6057      2.00000
      7      -5.5961      2.00000
      8      -5.5174      2.00000
      9      -5.3785      2.00000
     10      -5.3631      2.00000
     11      -3.4601      2.00000
     12      -3.3161      2.00000
     13       1.4854      2.00000
     14       1.7831      2.00000
     15       2.0335      2.00000
     16       3.6000      2.00000
     17       5.9607      2.00000
     18       6.5112      2.00000
     19      12.9008      0.00000
     20      13.0112      0.00000
     21      15.6153      0.00000
     22      16.5754      0.00000
     23      17.2282      0.00000
     24      18.5798      0.00000
     25      22.0572      0.00000
     26      22.4357      0.00000
     27      24.6529      0.00000
     28      27.4436      0.00000
     29      27.6944      0.00000
     30      30.2884      0.00000
     31      32.2248      0.00000
     32      33.2434      0.00000

 k-point   157 :       0.5000    0.3750    0.3333
  band No.  band energies     occupation 
      1      -7.8470      2.00000
      2      -7.7462      2.00000
      3      -5.9295      2.00000
      4      -5.8679      2.00000
      5      -5.8062      2.00000
      6      -5.6302      2.00000
      7      -5.5886      2.00000
      8      -5.5348      2.00000
      9      -5.3140      2.00000
     10      -5.3054      2.00000
     11      -3.4001      2.00000
     12      -2.8968      2.00000
     13       1.5952      2.00000
     14       1.7573      2.00000
     15       3.0237      2.00000
     16       3.6389      2.00000
     17       5.2762      2.00000
     18       6.3744      2.00000
     19      11.3093      0.00000
     20      12.0367      0.00000
     21      15.5791      0.00000
     22      16.6787      0.00000
     23      18.1049      0.00000
     24      19.2636      0.00000
     25      20.5639      0.00000
     26      21.7300      0.00000
     27      24.8091      0.00000
     28      27.3630      0.00000
     29      28.5464      0.00000
     30      30.3005      0.00000
     31      31.5403      0.00000
     32      33.2479      0.00000

 k-point   158 :      -0.3750    0.3750    0.3333
  band No.  band energies     occupation 
      1      -7.9644      2.00000
      2      -7.7913      2.00000
      3      -5.9131      2.00000
      4      -5.8251      2.00000
      5      -5.8243      2.00000
      6      -5.6506      2.00000
      7      -5.5856      2.00000
      8      -5.5657      2.00000
      9      -5.3533      2.00000
     10      -5.3271      2.00000
     11      -4.0435      2.00000
     12      -3.1556      2.00000
     13       2.3954      2.00000
     14       2.7516      2.00000
     15       2.8457      2.00000
     16       4.1633      2.00000
     17       5.2508      2.00000
     18       6.2284      2.00000
     19      10.9969      0.00000
     20      12.1392      0.00000
     21      15.9660      0.00000
     22      16.7807      0.00000
     23      17.8590      0.00000
     24      20.2139      0.00000
     25      20.6099      0.00000
     26      20.9906      0.00000
     27      24.2954      0.00000
     28      27.5701      0.00000
     29      27.8436      0.00000
     30      29.4605      0.00000
     31      30.9476      0.00000
     32      33.3492      0.00000

 k-point   159 :      -0.2500    0.3750    0.3333
  band No.  band energies     occupation 
      1      -8.0345      2.00000
      2      -7.7826      2.00000
      3      -5.9039      2.00000
      4      -5.8706      2.00000
      5      -5.7771      2.00000
      6      -5.6800      2.00000
      7      -5.6525      2.00000
      8      -5.5735      2.00000
      9      -5.4286      2.00000
     10      -5.3844      2.00000
     11      -4.6318      2.00000
     12      -3.7227      2.00000
     13       1.6297      2.00000
     14       2.5345      2.00000
     15       4.1764      2.00000
     16       5.0379      2.00000
     17       5.7293      2.00000
     18       6.7510      2.00000
     19      12.2864      0.00000
     20      13.3459      0.00000
     21      15.4381      0.00000
     22      16.3591      0.00000
     23      18.5831      0.00000
     24      19.7028      0.00000
     25      20.6692      0.00000
     26      21.0201      0.00000
     27      24.5748      0.00000
     28      26.5897      0.00000
     29      28.0909      0.00000
     30      29.0276      0.00000
     31      30.8880      0.00000
     32      33.1749      0.00000

 k-point   160 :      -0.1250    0.3750    0.3333
  band No.  band energies     occupation 
      1      -8.0253      2.00000
      2      -7.7208      2.00000
      3      -5.9177      2.00000
      4      -5.8693      2.00000
      5      -5.8423      2.00000
      6      -5.7844      2.00000
      7      -5.6358      2.00000
      8      -5.5348      2.00000
      9      -5.4483      2.00000
     10      -5.4001      2.00000
     11      -5.0024      2.00000
     12      -4.2138      2.00000
     13       0.7272      2.00000
     14       1.7539      2.00000
     15       4.6635      2.00000
     16       6.3921      2.00000
     17       6.9510      2.00000
     18       7.2374      2.00000
     19      13.7549      0.00000
     20      14.4966      0.00000
     21      15.1857      0.00000
     22      16.3491      0.00000
     23      18.3152      0.00000
     24      18.7930      0.00000
     25      21.0175      0.00000
     26      21.2085      0.00000
     27      25.8784      0.00000
     28      26.4381      0.00000
     29      27.9176      0.00000
     30      29.5365      0.00000
     31      31.2407      0.00000
     32      31.7643      0.00000

 k-point   161 :       0.0000    0.5000    0.3333
  band No.  band energies     occupation 
      1      -7.5980      2.00000
      2      -7.5074      2.00000
      3      -5.9263      2.00000
      4      -5.8851      2.00000
      5      -5.7900      2.00000
      6      -5.7845      2.00000
      7      -5.5705      2.00000
      8      -5.5444      2.00000
      9      -5.4061      2.00000
     10      -5.3819      2.00000
     11      -4.7894      2.00000
     12      -4.6839      2.00000
     13      -0.1480      2.00000
     14       0.1903      2.00000
     15       5.4898      2.00000
     16       6.0679      2.00000
     17       7.4656      2.00000
     18       7.9239      2.00000
     19      13.3719      0.00000
     20      13.6611      0.00000
     21      17.3218      0.00000
     22      17.3500      0.00000
     23      18.1009      0.00000
     24      18.2991      0.00000
     25      21.9201      0.00000
     26      22.4056      0.00000
     27      23.9657      0.00000
     28      25.0341      0.00000
     29      28.9622      0.00000
     30      30.3979      0.00000
     31      30.9707      0.00000
     32      31.7423      0.00000

 k-point   162 :       0.1250    0.5000    0.3333
  band No.  band energies     occupation 
      1      -7.6381      2.00000
      2      -7.5490      2.00000
      3      -5.9087      2.00000
      4      -5.8540      2.00000
      5      -5.8301      2.00000
      6      -5.8064      2.00000
      7      -5.6263      2.00000
      8      -5.5188      2.00000
      9      -5.4272      2.00000
     10      -5.3674      2.00000
     11      -4.5696      2.00000
     12      -4.3421      2.00000
     13       0.0483      2.00000
     14       0.4528      2.00000
     15       5.3959      2.00000
     16       5.8778      2.00000
     17       6.7659      2.00000
     18       7.0869      2.00000
     19      13.8973      0.00000
     20      14.0984      0.00000
     21      16.1338      0.00000
     22      16.8444      0.00000
     23      18.1012      0.00000
     24      18.6753      0.00000
     25      20.5529      0.00000
     26      22.3016      0.00000
     27      25.0894      0.00000
     28      26.0858      0.00000
     29      28.8434      0.00000
     30      29.8561      0.00000
     31      31.3662      0.00000
     32      32.0176      0.00000

 k-point   163 :       0.2500    0.5000    0.3333
  band No.  band energies     occupation 
      1      -7.7432      2.00000
      2      -7.6481      2.00000
      3      -5.9362      2.00000
      4      -5.8943      2.00000
      5      -5.7777      2.00000
      6      -5.6783      2.00000
      7      -5.6227      2.00000
      8      -5.5572      2.00000
      9      -5.4003      2.00000
     10      -5.3577      2.00000
     11      -4.0452      2.00000
     12      -3.6271      2.00000
     13       0.6735      2.00000
     14       1.1628      2.00000
     15       4.1571      2.00000
     16       4.9572      2.00000
     17       5.7926      2.00000
     18       6.6900      2.00000
     19      12.9929      0.00000
     20      13.7419      0.00000
     21      15.2063      0.00000
     22      16.1853      0.00000
     23      18.2277      0.00000
     24      18.9622      0.00000
     25      21.1692      0.00000
     26      21.9209      0.00000
     27      24.6412      0.00000
     28      26.7405      0.00000
     29      28.5048      0.00000
     30      30.1661      0.00000
     31      31.5824      0.00000
     32      33.1573      0.00000

 k-point   164 :       0.3750    0.5000    0.3333
  band No.  band energies     occupation 
      1      -7.8470      2.00000
      2      -7.7462      2.00000
      3      -5.9295      2.00000
      4      -5.8679      2.00000
      5      -5.8062      2.00000
      6      -5.6302      2.00000
      7      -5.5886      2.00000
      8      -5.5348      2.00000
      9      -5.3139      2.00000
     10      -5.3054      2.00000
     11      -3.4001      2.00000
     12      -2.8969      2.00000
     13       1.5952      2.00000
     14       1.7573      2.00000
     15       3.0237      2.00000
     16       3.6389      2.00000
     17       5.2763      2.00000
     18       6.3744      2.00000
     19      11.3094      0.00000
     20      12.0366      0.00000
     21      15.5791      0.00000
     22      16.6785      0.00000
     23      18.1049      0.00000
     24      19.2635      0.00000
     25      20.5639      0.00000
     26      21.7300      0.00000
     27      24.8091      0.00000
     28      27.3631      0.00000
     29      28.5464      0.00000
     30      30.3006      0.00000
     31      31.5405      0.00000
     32      33.2478      0.00000

 k-point   165 :       0.5000    0.5000    0.3333
  band No.  band energies     occupation 
      1      -7.8881      2.00000
      2      -7.7862      2.00000
      3      -5.9334      2.00000
      4      -5.8438      2.00000
      5      -5.8081      2.00000
      6      -5.6427      2.00000
      7      -5.5761      2.00000
      8      -5.5347      2.00000
      9      -5.2624      2.00000
     10      -5.2569      2.00000
     11      -3.0213      2.00000
     12      -2.5704      2.00000
     13       1.3165      2.00000
     14       2.3467      2.00000
     15       2.7310      2.00000
     16       3.8093      2.00000
     17       4.7347      2.00000
     18       5.8499      2.00000
     19      10.7231      0.00000
     20      11.4574      0.00000
     21      15.3476      0.00000
     22      17.5183      0.00000
     23      18.1415      0.00000
     24      19.2074      0.00000
     25      20.3948      0.00000
     26      20.6527      0.00000
     27      25.3385      0.00000
     28      27.6567      0.00000
     29      28.9628      0.00000
     30      30.4569      0.00000
     31      31.5832      0.00000
     32      33.3214      0.00000

 k-point   166 :      -0.3750    0.5000    0.3333
  band No.  band energies     occupation 
      1      -7.8470      2.00000
      2      -7.7462      2.00000
      3      -5.9295      2.00000
      4      -5.8679      2.00000
      5      -5.8062      2.00000
      6      -5.6302      2.00000
      7      -5.5886      2.00000
      8      -5.5348      2.00000
      9      -5.3140      2.00000
     10      -5.3054      2.00000
     11      -3.4001      2.00000
     12      -2.8968      2.00000
     13       1.5952      2.00000
     14       1.7573      2.00000
     15       3.0237      2.00000
     16       3.6389      2.00000
     17       5.2762      2.00000
     18       6.3744      2.00000
     19      11.3093      0.00000
     20      12.0367      0.00000
     21      15.5791      0.00000
     22      16.6787      0.00000
     23      18.1049      0.00000
     24      19.2636      0.00000
     25      20.5639      0.00000
     26      21.7300      0.00000
     27      24.8091      0.00000
     28      27.3630      0.00000
     29      28.5464      0.00000
     30      30.3005      0.00000
     31      31.5403      0.00000
     32      33.2479      0.00000

 k-point   167 :      -0.2500    0.5000    0.3333
  band No.  band energies     occupation 
      1      -7.7432      2.00000
      2      -7.6481      2.00000
      3      -5.9362      2.00000
      4      -5.8943      2.00000
      5      -5.7777      2.00000
      6      -5.6783      2.00000
      7      -5.6227      2.00000
      8      -5.5572      2.00000
      9      -5.4003      2.00000
     10      -5.3577      2.00000
     11      -4.0453      2.00000
     12      -3.6270      2.00000
     13       0.6735      2.00000
     14       1.1628      2.00000
     15       4.1571      2.00000
     16       4.9571      2.00000
     17       5.7925      2.00000
     18       6.6900      2.00000
     19      12.9927      0.00000
     20      13.7420      0.00000
     21      15.2064      0.00000
     22      16.1854      0.00000
     23      18.2277      0.00000
     24      18.9622      0.00000
     25      21.1690      0.00000
     26      21.9210      0.00000
     27      24.6415      0.00000
     28      26.7403      0.00000
     29      28.5047      0.00000
     30      30.1660      0.00000
     31      31.5822      0.00000
     32      33.1574      0.00000

 k-point   168 :      -0.1250    0.5000    0.3333
  band No.  band energies     occupation 
      1      -7.6381      2.00000
      2      -7.5490      2.00000
      3      -5.9087      2.00000
      4      -5.8540      2.00000
      5      -5.8301      2.00000
      6      -5.8064      2.00000
      7      -5.6263      2.00000
      8      -5.5188      2.00000
      9      -5.4272      2.00000
     10      -5.3673      2.00000
     11      -4.5696      2.00000
     12      -4.3420      2.00000
     13       0.0483      2.00000
     14       0.4528      2.00000
     15       5.3959      2.00000
     16       5.8778      2.00000
     17       6.7659      2.00000
     18       7.0869      2.00000
     19      13.8971      0.00000
     20      14.0986      0.00000
     21      16.1339      0.00000
     22      16.8444      0.00000
     23      18.1011      0.00000
     24      18.6753      0.00000
     25      20.5529      0.00000
     26      22.3017      0.00000
     27      25.0896      0.00000
     28      26.0859      0.00000
     29      28.8434      0.00000
     30      29.8561      0.00000
     31      31.3662      0.00000
     32      32.0172      0.00000

 k-point   169 :      -0.0000   -0.3750    0.3333
  band No.  band energies     occupation 
      1      -7.9099      2.00000
      2      -7.6290      2.00000
      3      -5.9345      2.00000
      4      -5.8851      2.00000
      5      -5.8062      2.00000
      6      -5.7721      2.00000
      7      -5.5816      2.00000
      8      -5.5442      2.00000
      9      -5.4262      2.00000
     10      -5.4152      2.00000
     11      -5.2065      2.00000
     12      -4.4912      2.00000
     13       0.2689      2.00000
     14       1.2021      2.00000
     15       4.8096      2.00000
     16       6.5813      2.00000
     17       7.3426      2.00000
     18       7.8778      2.00000
     19      13.2515      0.00000
     20      14.3894      0.00000
     21      16.4219      0.00000
     22      17.6148      0.00000
     23      17.8874      0.00000
     24      18.5483      0.00000
     25      22.1473      0.00000
     26      22.4573      0.00000
     27      23.9583      0.00000
     28      26.4369      0.00000
     29      28.4716      0.00000
     30      29.4672      0.00000
     31      30.5335      0.00000
     32      31.3176      0.00000

 k-point   170 :       0.1250   -0.3750    0.3333
  band No.  band energies     occupation 
      1      -8.0253      2.00000
      2      -7.7208      2.00000
      3      -5.9177      2.00000
      4      -5.8693      2.00000
      5      -5.8423      2.00000
      6      -5.7844      2.00000
      7      -5.6358      2.00000
      8      -5.5348      2.00000
      9      -5.4482      2.00000
     10      -5.4001      2.00000
     11      -5.0023      2.00000
     12      -4.2138      2.00000
     13       0.7271      2.00000
     14       1.7539      2.00000
     15       4.6635      2.00000
     16       6.3921      2.00000
     17       6.9511      2.00000
     18       7.2374      2.00000
     19      13.7549      0.00000
     20      14.4967      0.00000
     21      15.1857      0.00000
     22      16.3490      0.00000
     23      18.3152      0.00000
     24      18.7930      0.00000
     25      21.0175      0.00000
     26      21.2085      0.00000
     27      25.8782      0.00000
     28      26.4380      0.00000
     29      27.9176      0.00000
     30      29.5366      0.00000
     31      31.2406      0.00000
     32      31.7645      0.00000

 k-point   171 :       0.2500   -0.3750    0.3333
  band No.  band energies     occupation 
      1      -8.0345      2.00000
      2      -7.7826      2.00000
      3      -5.9039      2.00000
      4      -5.8706      2.00000
      5      -5.7771      2.00000
      6      -5.6800      2.00000
      7      -5.6525      2.00000
      8      -5.5735      2.00000
      9      -5.4286      2.00000
     10      -5.3844      2.00000
     11      -4.6317      2.00000
     12      -3.7227      2.00000
     13       1.6297      2.00000
     14       2.5345      2.00000
     15       4.1764      2.00000
     16       5.0379      2.00000
     17       5.7294      2.00000
     18       6.7510      2.00000
     19      12.2866      0.00000
     20      13.3458      0.00000
     21      15.4379      0.00000
     22      16.3590      0.00000
     23      18.5831      0.00000
     24      19.7028      0.00000
     25      20.6691      0.00000
     26      21.0202      0.00000
     27      24.5745      0.00000
     28      26.5898      0.00000
     29      28.0910      0.00000
     30      29.0278      0.00000
     31      30.8884      0.00000
     32      33.1747      0.00000

 k-point   172 :       0.3750   -0.3750    0.3333
  band No.  band energies     occupation 
      1      -7.9644      2.00000
      2      -7.7913      2.00000
      3      -5.9131      2.00000
      4      -5.8251      2.00000
      5      -5.8243      2.00000
      6      -5.6506      2.00000
      7      -5.5856      2.00000
      8      -5.5657      2.00000
      9      -5.3533      2.00000
     10      -5.3271      2.00000
     11      -4.0434      2.00000
     12      -3.1557      2.00000
     13       2.3954      2.00000
     14       2.7516      2.00000
     15       2.8457      2.00000
     16       4.1634      2.00000
     17       5.2509      2.00000
     18       6.2284      2.00000
     19      10.9970      0.00000
     20      12.1392      0.00000
     21      15.9660      0.00000
     22      16.7804      0.00000
     23      17.8590      0.00000
     24      20.2140      0.00000
     25      20.6099      0.00000
     26      20.9906      0.00000
     27      24.2953      0.00000
     28      27.5704      0.00000
     29      27.8436      0.00000
     30      29.4606      0.00000
     31      30.9479      0.00000
     32      33.3491      0.00000

 k-point   173 :       0.5000   -0.3750    0.3333
  band No.  band energies     occupation 
      1      -7.8470      2.00000
      2      -7.7462      2.00000
      3      -5.9295      2.00000
      4      -5.8679      2.00000
      5      -5.8062      2.00000
      6      -5.6302      2.00000
      7      -5.5886      2.00000
      8      -5.5348      2.00000
      9      -5.3139      2.00000
     10      -5.3054      2.00000
     11      -3.4001      2.00000
     12      -2.8969      2.00000
     13       1.5952      2.00000
     14       1.7573      2.00000
     15       3.0237      2.00000
     16       3.6389      2.00000
     17       5.2763      2.00000
     18       6.3744      2.00000
     19      11.3094      0.00000
     20      12.0366      0.00000
     21      15.5791      0.00000
     22      16.6785      0.00000
     23      18.1049      0.00000
     24      19.2635      0.00000
     25      20.5639      0.00000
     26      21.7300      0.00000
     27      24.8091      0.00000
     28      27.3631      0.00000
     29      28.5464      0.00000
     30      30.3006      0.00000
     31      31.5405      0.00000
     32      33.2478      0.00000

 k-point   174 :      -0.3750   -0.3750    0.3333
  band No.  band energies     occupation 
      1      -7.7073      2.00000
      2      -7.6737      2.00000
      3      -5.9346      2.00000
      4      -5.8477      2.00000
      5      -5.8466      2.00000
      6      -5.6057      2.00000
      7      -5.5961      2.00000
      8      -5.5174      2.00000
      9      -5.3785      2.00000
     10      -5.3631      2.00000
     11      -3.4601      2.00000
     12      -3.3161      2.00000
     13       1.4854      2.00000
     14       1.7831      2.00000
     15       2.0335      2.00000
     16       3.6000      2.00000
     17       5.9607      2.00000
     18       6.5112      2.00000
     19      12.9008      0.00000
     20      13.0112      0.00000
     21      15.6153      0.00000
     22      16.5754      0.00000
     23      17.2282      0.00000
     24      18.5798      0.00000
     25      22.0572      0.00000
     26      22.4357      0.00000
     27      24.6529      0.00000
     28      27.4436      0.00000
     29      27.6944      0.00000
     30      30.2884      0.00000
     31      32.2248      0.00000
     32      33.2434      0.00000

 k-point   175 :      -0.2500   -0.3750    0.3333
  band No.  band energies     occupation 
      1      -7.6462      2.00000
      2      -7.5911      2.00000
      3      -5.9161      2.00000
      4      -5.8592      2.00000
      5      -5.7829      2.00000
      6      -5.6675      2.00000
      7      -5.6035      2.00000
      8      -5.5588      2.00000
      9      -5.4553      2.00000
     10      -5.4122      2.00000
     11      -4.3581      2.00000
     12      -3.8418      2.00000
     13       0.8176      2.00000
     14       1.2467      2.00000
     15       3.4873      2.00000
     16       4.8080      2.00000
     17       6.0961      2.00000
     18       6.4646      2.00000
     19      14.4474      0.00000
     20      14.7837      0.00000
     21      15.6714      0.00000
     22      16.6107      0.00000
     23      17.1420      0.00000
     24      18.5654      0.00000
     25      21.8790      0.00000
     26      22.9686      0.00000
     27      24.3391      0.00000
     28      27.0461      0.00000
     29      28.1064      0.00000
     30      29.5998      0.00000
     31      32.5128      0.00000
     32      33.0181      0.00000

 k-point   176 :      -0.1250   -0.3750    0.3333
  band No.  band energies     occupation 
      1      -7.7396      2.00000
      2      -7.5639      2.00000
      3      -5.9005      2.00000
      4      -5.8415      2.00000
      5      -5.7727      2.00000
      6      -5.7457      2.00000
      7      -5.6351      2.00000
      8      -5.5299      2.00000
      9      -5.4735      2.00000
     10      -5.4147      2.00000
     11      -5.0192      2.00000
     12      -4.3580      2.00000
     13       0.3004      2.00000
     14       1.0480      2.00000
     15       4.8903      2.00000
     16       6.1261      2.00000
     17       6.3744      2.00000
     18       6.9470      2.00000
     19      13.8832      0.00000
     20      14.9751      0.00000
     21      16.4807      0.00000
     22      17.4361      0.00000
     23      17.9851      0.00000
     24      18.7604      0.00000
     25      21.2949      0.00000
     26      23.0351      0.00000
     27      24.2028      0.00000
     28      26.5123      0.00000
     29      28.4984      0.00000
     30      29.7424      0.00000
     31      30.7197      0.00000
     32      31.2555      0.00000

 k-point   177 :       0.0000   -0.2500    0.3333
  band No.  band energies     occupation 
      1      -8.5579      2.00000
      2      -7.9870      2.00000
      3      -5.9453      2.00000
      4      -5.8881      2.00000
      5      -5.7985      2.00000
      6      -5.6977      2.00000
      7      -5.6184      2.00000
      8      -5.5808      2.00000
      9      -5.5041      2.00000
     10      -5.4326      2.00000
     11      -5.3941      2.00000
     12      -4.6576      2.00000
     13       1.6259      2.00000
     14       3.0574      2.00000
     15       4.2901      2.00000
     16       6.8257      2.00000
     17       7.1403      2.00000
     18       7.7394      2.00000
     19      13.4856      0.00000
     20      14.4310      0.00000
     21      16.1572      0.00000
     22      17.1281      0.00000
     23      18.3668      0.00000
     24      18.9023      0.00000
     25      22.2305      0.00000
     26      22.7526      0.00000
     27      24.4910      0.00000
     28      26.6043      0.00000
     29      27.0971      0.00000
     30      28.9959      0.00000
     31      30.4443      0.00000
     32      32.1886      0.00000

 k-point   178 :       0.1250   -0.2500    0.3333
  band No.  band energies     occupation 
      1      -8.5958      2.00000
      2      -8.0391      2.00000
      3      -5.9029      2.00000
      4      -5.8415      2.00000
      5      -5.7885      2.00000
      6      -5.7243      2.00000
      7      -5.6704      2.00000
      8      -5.6060      2.00000
      9      -5.5310      2.00000
     10      -5.4229      2.00000
     11      -5.2767      2.00000
     12      -4.5002      2.00000
     13       2.1817      2.00000
     14       3.7226      2.00000
     15       4.2447      2.00000
     16       6.3720      2.00000
     17       6.6376      2.00000
     18       7.3692      2.00000
     19      13.7470      0.00000
     20      14.2457      0.00000
     21      15.6331      0.00000
     22      16.5822      0.00000
     23      18.8957      0.00000
     24      19.3791      0.00000
     25      20.2746      0.00000
     26      21.0191      0.00000
     27      24.9651      0.00000
     28      26.6220      0.00000
     29      27.0729      0.00000
     30      28.1729      0.00000
     31      31.5656      0.00000
     32      32.4117      0.00000

 k-point   179 :       0.2500   -0.2500    0.3333
  band No.  band energies     occupation 
      1      -8.3759      2.00000
      2      -7.9456      2.00000
      3      -5.8445      2.00000
      4      -5.8154      2.00000
      5      -5.8059      2.00000
      6      -5.6786      2.00000
      7      -5.6750      2.00000
      8      -5.6390      2.00000
      9      -5.5175      2.00000
     10      -5.4155      2.00000
     11      -5.0706      2.00000
     12      -4.1611      2.00000
     13       2.7695      2.00000
     14       3.7901      2.00000
     15       4.1401      2.00000
     16       5.0670      2.00000
     17       5.7030      2.00000
     18       6.9985      2.00000
     19      12.9147      0.00000
     20      13.8696      0.00000
     21      15.5516      0.00000
     22      16.6285      0.00000
     23      18.7518      0.00000
     24      19.9133      0.00000
     25      20.1636      0.00000
     26      20.5552      0.00000
     27      25.3927      0.00000
     28      25.5979      0.00000
     29      27.4941      0.00000
     30      27.5184      0.00000
     31      31.4981      0.00000
     32      33.3269      0.00000

 k-point   180 :       0.3750   -0.2500    0.3333
  band No.  band energies     occupation 
      1      -8.0345      2.00000
      2      -7.7826      2.00000
      3      -5.9039      2.00000
      4      -5.8706      2.00000
      5      -5.7771      2.00000
      6      -5.6800      2.00000
      7      -5.6525      2.00000
      8      -5.5735      2.00000
      9      -5.4286      2.00000
     10      -5.3844      2.00000
     11      -4.6317      2.00000
     12      -3.7227      2.00000
     13       1.6297      2.00000
     14       2.5345      2.00000
     15       4.1764      2.00000
     16       5.0379      2.00000
     17       5.7294      2.00000
     18       6.7510      2.00000
     19      12.2866      0.00000
     20      13.3458      0.00000
     21      15.4379      0.00000
     22      16.3590      0.00000
     23      18.5831      0.00000
     24      19.7028      0.00000
     25      20.6691      0.00000
     26      21.0202      0.00000
     27      24.5745      0.00000
     28      26.5898      0.00000
     29      28.0910      0.00000
     30      29.0278      0.00000
     31      30.8884      0.00000
     32      33.1747      0.00000

 k-point   181 :       0.5000   -0.2500    0.3333
  band No.  band energies     occupation 
      1      -7.7432      2.00000
      2      -7.6481      2.00000
      3      -5.9362      2.00000
      4      -5.8943      2.00000
      5      -5.7777      2.00000
      6      -5.6783      2.00000
      7      -5.6227      2.00000
      8      -5.5572      2.00000
      9      -5.4003      2.00000
     10      -5.3577      2.00000
     11      -4.0452      2.00000
     12      -3.6271      2.00000
     13       0.6735      2.00000
     14       1.1628      2.00000
     15       4.1571      2.00000
     16       4.9572      2.00000
     17       5.7926      2.00000
     18       6.6900      2.00000
     19      12.9929      0.00000
     20      13.7419      0.00000
     21      15.2063      0.00000
     22      16.1853      0.00000
     23      18.2277      0.00000
     24      18.9622      0.00000
     25      21.1692      0.00000
     26      21.9209      0.00000
     27      24.6412      0.00000
     28      26.7405      0.00000
     29      28.5048      0.00000
     30      30.1661      0.00000
     31      31.5824      0.00000
     32      33.1573      0.00000

 k-point   182 :      -0.3750   -0.2500    0.3333
  band No.  band energies     occupation 
      1      -7.6462      2.00000
      2      -7.5911      2.00000
      3      -5.9161      2.00000
      4      -5.8592      2.00000
      5      -5.7829      2.00000
      6      -5.6675      2.00000
      7      -5.6035      2.00000
      8      -5.5588      2.00000
      9      -5.4553      2.00000
     10      -5.4122      2.00000
     11      -4.3581      2.00000
     12      -3.8418      2.00000
     13       0.8177      2.00000
     14       1.2467      2.00000
     15       3.4873      2.00000
     16       4.8080      2.00000
     17       6.0961      2.00000
     18       6.4646      2.00000
     19      14.4475      0.00000
     20      14.7837      0.00000
     21      15.6713      0.00000
     22      16.6107      0.00000
     23      17.1419      0.00000
     24      18.5655      0.00000
     25      21.8791      0.00000
     26      22.9685      0.00000
     27      24.3389      0.00000
     28      27.0461      0.00000
     29      28.1065      0.00000
     30      29.5998      0.00000
     31      32.5128      0.00000
     32      33.0181      0.00000

 k-point   183 :      -0.2500   -0.2500    0.3333
  band No.  band energies     occupation 
      1      -7.8628      2.00000
      2      -7.6269      2.00000
      3      -5.8647      2.00000
      4      -5.8249      2.00000
      5      -5.7188      2.00000
      6      -5.6547      2.00000
      7      -5.6271      2.00000
      8      -5.6258      2.00000
      9      -5.5265      2.00000
     10      -5.5067      2.00000
     11      -5.0625      2.00000
     12      -4.2328      2.00000
     13       1.2519      2.00000
     14       2.1287      2.00000
     15       3.8413      2.00000
     16       5.1469      2.00000
     17       5.4452      2.00000
     18       6.8773      2.00000
     19      15.0293      0.00000
     20      15.7256      0.00000
     21      16.3610      0.00000
     22      17.1458      0.00000
     23      17.2772      0.00000
     24      18.2725      0.00000
     25      22.7851      0.00000
     26      23.3646      0.00000
     27      23.5542      0.00000
     28      27.5869      0.00000
     29      28.5090      0.00000
     30      28.9044      0.00000
     31      31.0369      0.00000
     32      32.2537      0.00000

 k-point   184 :      -0.1250   -0.2500    0.3333
  band No.  band energies     occupation 
      1      -8.2556      2.00000
      2      -7.8053      2.00000
      3      -5.8866      2.00000
      4      -5.8499      2.00000
      5      -5.7753      2.00000
      6      -5.6918      2.00000
      7      -5.6155      2.00000
      8      -5.5789      2.00000
      9      -5.5585      2.00000
     10      -5.4832      2.00000
     11      -5.3512      2.00000
     12      -4.5756      2.00000
     13       1.3737      2.00000
     14       2.6102      2.00000
     15       4.5452      2.00000
     16       5.7045      2.00000
     17       6.5158      2.00000
     18       7.1127      2.00000
     19      14.1655      0.00000
     20      15.7375      0.00000
     21      16.3002      0.00000
     22      17.4637      0.00000
     23      17.8114      0.00000
     24      18.4725      0.00000
     25      23.1655      0.00000
     26      23.8263      0.00000
     27      24.0468      0.00000
     28      27.3211      0.00000
     29      28.1255      0.00000
     30      28.7148      0.00000
     31      29.0505      0.00000
     32      31.1114      0.00000

 k-point   185 :       0.0000   -0.1250    0.3333
  band No.  band energies     occupation 
      1      -9.1072      2.00000
      2      -8.3464      2.00000
      3      -5.9338      2.00000
      4      -5.8771      2.00000
      5      -5.8321      2.00000
      6      -5.6507      2.00000
      7      -5.6027      2.00000
      8      -5.5760      2.00000
      9      -5.5311      2.00000
     10      -5.4514      2.00000
     11      -5.4158      2.00000
     12      -4.8870      2.00000
     13       2.3374      2.00000
     14       4.8846      2.00000
     15       4.9840      2.00000
     16       6.7308      2.00000
     17       7.0736      2.00000
     18       7.7537      2.00000
     19      12.9154      0.00000
     20      13.1265      0.00000
     21      17.2274      0.00000
     22      17.5434      0.00000
     23      18.3027      0.00000
     24      19.3385      0.00000
     25      22.3598      0.00000
     26      22.5962      0.00000
     27      23.9461      0.00000
     28      25.9540      0.00000
     29      26.7431      0.00000
     30      29.9546      0.00000
     31      30.5743      0.00000
     32      31.9508      0.00000

 k-point   186 :       0.1250   -0.1250    0.3333
  band No.  band energies     occupation 
      1      -9.0204      2.00000
      2      -8.3007      2.00000
      3      -5.8792      2.00000
      4      -5.8551      2.00000
      5      -5.8133      2.00000
      6      -5.6985      2.00000
      7      -5.6292      2.00000
      8      -5.6008      2.00000
      9      -5.5744      2.00000
     10      -5.4204      2.00000
     11      -5.3828      2.00000
     12      -4.7733      2.00000
     13       2.5200      2.00000
     14       4.9789      2.00000
     15       5.3614      2.00000
     16       6.0784      2.00000
     17       6.5230      2.00000
     18       7.5892      2.00000
     19      13.1735      0.00000
     20      13.4793      0.00000
     21      16.8444      0.00000
     22      17.3885      0.00000
     23      18.7433      0.00000
     24      19.8750      0.00000
     25      20.5257      0.00000
     26      20.9938      0.00000
     27      23.6325      0.00000
     28      26.4359      0.00000
     29      26.8726      0.00000
     30      29.4859      0.00000
     31      30.5399      0.00000
     32      32.8402      0.00000

 k-point   187 :       0.2500   -0.1250    0.3333
  band No.  band energies     occupation 
      1      -8.5958      2.00000
      2      -8.0391      2.00000
      3      -5.9029      2.00000
      4      -5.8415      2.00000
      5      -5.7885      2.00000
      6      -5.7243      2.00000
      7      -5.6704      2.00000
      8      -5.6060      2.00000
      9      -5.5310      2.00000
     10      -5.4229      2.00000
     11      -5.2767      2.00000
     12      -4.5002      2.00000
     13       2.1817      2.00000
     14       3.7226      2.00000
     15       4.2447      2.00000
     16       6.3720      2.00000
     17       6.6376      2.00000
     18       7.3692      2.00000
     19      13.7470      0.00000
     20      14.2457      0.00000
     21      15.6331      0.00000
     22      16.5822      0.00000
     23      18.8957      0.00000
     24      19.3791      0.00000
     25      20.2746      0.00000
     26      21.0191      0.00000
     27      24.9651      0.00000
     28      26.6220      0.00000
     29      27.0729      0.00000
     30      28.1729      0.00000
     31      31.5656      0.00000
     32      32.4117      0.00000

 k-point   188 :       0.3750   -0.1250    0.3333
  band No.  band energies     occupation 
      1      -8.0253      2.00000
      2      -7.7208      2.00000
      3      -5.9177      2.00000
      4      -5.8693      2.00000
      5      -5.8423      2.00000
      6      -5.7844      2.00000
      7      -5.6358      2.00000
      8      -5.5348      2.00000
      9      -5.4482      2.00000
     10      -5.4001      2.00000
     11      -5.0023      2.00000
     12      -4.2138      2.00000
     13       0.7271      2.00000
     14       1.7539      2.00000
     15       4.6635      2.00000
     16       6.3921      2.00000
     17       6.9511      2.00000
     18       7.2374      2.00000
     19      13.7549      0.00000
     20      14.4967      0.00000
     21      15.1857      0.00000
     22      16.3490      0.00000
     23      18.3152      0.00000
     24      18.7930      0.00000
     25      21.0175      0.00000
     26      21.2085      0.00000
     27      25.8782      0.00000
     28      26.4380      0.00000
     29      27.9176      0.00000
     30      29.5366      0.00000
     31      31.2406      0.00000
     32      31.7645      0.00000

 k-point   189 :       0.5000   -0.1250    0.3333
  band No.  band energies     occupation 
      1      -7.6381      2.00000
      2      -7.5490      2.00000
      3      -5.9087      2.00000
      4      -5.8540      2.00000
      5      -5.8301      2.00000
      6      -5.8064      2.00000
      7      -5.6263      2.00000
      8      -5.5188      2.00000
      9      -5.4272      2.00000
     10      -5.3674      2.00000
     11      -4.5696      2.00000
     12      -4.3421      2.00000
     13       0.0483      2.00000
     14       0.4528      2.00000
     15       5.3959      2.00000
     16       5.8778      2.00000
     17       6.7659      2.00000
     18       7.0869      2.00000
     19      13.8973      0.00000
     20      14.0984      0.00000
     21      16.1338      0.00000
     22      16.8444      0.00000
     23      18.1012      0.00000
     24      18.6753      0.00000
     25      20.5529      0.00000
     26      22.3016      0.00000
     27      25.0894      0.00000
     28      26.0858      0.00000
     29      28.8434      0.00000
     30      29.8561      0.00000
     31      31.3662      0.00000
     32      32.0176      0.00000

 k-point   190 :      -0.3750   -0.1250    0.3333
  band No.  band energies     occupation 
      1      -7.7396      2.00000
      2      -7.5639      2.00000
      3      -5.9005      2.00000
      4      -5.8415      2.00000
      5      -5.7726      2.00000
      6      -5.7457      2.00000
      7      -5.6351      2.00000
      8      -5.5299      2.00000
      9      -5.4735      2.00000
     10      -5.4147      2.00000
     11      -5.0192      2.00000
     12      -4.3580      2.00000
     13       0.3005      2.00000
     14       1.0480      2.00000
     15       4.8902      2.00000
     16       6.1261      2.00000
     17       6.3745      2.00000
     18       6.9469      2.00000
     19      13.8834      0.00000
     20      14.9749      0.00000
     21      16.4806      0.00000
     22      17.4362      0.00000
     23      17.9851      0.00000
     24      18.7605      0.00000
     25      21.2949      0.00000
     26      23.0351      0.00000
     27      24.2026      0.00000
     28      26.5122      0.00000
     29      28.4983      0.00000
     30      29.7425      0.00000
     31      30.7196      0.00000
     32      31.2557      0.00000

 k-point   191 :      -0.2500   -0.1250    0.3333
  band No.  band energies     occupation 
      1      -8.2556      2.00000
      2      -7.8053      2.00000
      3      -5.8866      2.00000
      4      -5.8499      2.00000
      5      -5.7753      2.00000
      6      -5.6918      2.00000
      7      -5.6155      2.00000
      8      -5.5789      2.00000
      9      -5.5585      2.00000
     10      -5.4832      2.00000
     11      -5.3512      2.00000
     12      -4.5756      2.00000
     13       1.3738      2.00000
     14       2.6101      2.00000
     15       4.5451      2.00000
     16       5.7045      2.00000
     17       6.5159      2.00000
     18       7.1127      2.00000
     19      14.1656      0.00000
     20      15.7375      0.00000
     21      16.3001      0.00000
     22      17.4637      0.00000
     23      17.8113      0.00000
     24      18.4726      0.00000
     25      23.1655      0.00000
     26      23.8263      0.00000
     27      24.0468      0.00000
     28      27.3211      0.00000
     29      28.1254      0.00000
     30      28.7148      0.00000
     31      29.0504      0.00000
     32      31.1116      0.00000

 k-point   192 :      -0.1250   -0.1250    0.3333
  band No.  band energies     occupation 
      1      -8.8163      2.00000
      2      -8.1426      2.00000
      3      -5.9249      2.00000
      4      -5.8694      2.00000
      5      -5.8310      2.00000
      6      -5.6469      2.00000
      7      -5.5976      2.00000
      8      -5.5954      2.00000
      9      -5.5130      2.00000
     10      -5.4845      2.00000
     11      -5.4414      2.00000
     12      -4.7952      2.00000
     13       2.1218      2.00000
     14       4.0247      2.00000
     15       4.7419      2.00000
     16       6.0877      2.00000
     17       7.0974      2.00000
     18       7.0988      2.00000
     19      13.8023      0.00000
     20      14.2873      0.00000
     21      17.2579      0.00000
     22      17.3173      0.00000
     23      17.9929      0.00000
     24      18.4036      0.00000
     25      23.7169      0.00000
     26      23.9886      0.00000
     27      25.2893      0.00000
     28      25.3843      0.00000
     29      27.1789      0.00000
     30      29.3258      0.00000
     31      29.9850      0.00000
     32      31.1175      0.00000

 k-point   193 :      -0.0000    0.0000    0.5000
  band No.  band energies     occupation 
      1      -8.8704      2.00000
      2      -8.8703      2.00000
      3      -5.9065      2.00000
      4      -5.9065      2.00000
      5      -5.7271      2.00000
      6      -5.7271      2.00000
      7      -5.5716      2.00000
      8      -5.5715      2.00000
      9      -5.4896      2.00000
     10      -5.4895      2.00000
     11      -5.3743      2.00000
     12      -5.3743      2.00000
     13       4.1426      2.00000
     14       4.1427      2.00000
     15       6.0303      2.00000
     16       6.0305      2.00000
     17       7.6228      2.00000
     18       7.6229      2.00000
     19      12.6528      0.00000
     20      12.6529      0.00000
     21      17.2314      0.00000
     22      17.2316      0.00000
     23      18.8384      0.00000
     24      18.8386      0.00000
     25      22.0310      0.00000
     26      22.0313      0.00000
     27      24.8464      0.00000
     28      24.8465      0.00000
     29      29.5583      0.00000
     30      29.5586      0.00000
     31      31.8778      0.00000
     32      31.8778      0.00000

 k-point   194 :       0.1250    0.0000    0.5000
  band No.  band energies     occupation 
      1      -8.6910      2.00000
      2      -8.6910      2.00000
      3      -5.9033      2.00000
      4      -5.9032      2.00000
      5      -5.7432      2.00000
      6      -5.7432      2.00000
      7      -5.6055      2.00000
      8      -5.6054      2.00000
      9      -5.4742      2.00000
     10      -5.4742      2.00000
     11      -5.3102      2.00000
     12      -5.3102      2.00000
     13       3.7545      2.00000
     14       3.7546      2.00000
     15       5.8178      2.00000
     16       5.8179      2.00000
     17       7.3762      2.00000
     18       7.3763      2.00000
     19      13.4117      0.00000
     20      13.4118      0.00000
     21      16.7745      0.00000
     22      16.7746      0.00000
     23      18.6996      0.00000
     24      18.6997      0.00000
     25      22.3926      0.00000
     26      22.3928      0.00000
     27      25.0255      0.00000
     28      25.0256      0.00000
     29      28.5355      0.00000
     30      28.5356      0.00000
     31      31.6106      0.00000
     32      31.6107      0.00000

 k-point   195 :       0.2500   -0.0000    0.5000
  band No.  band energies     occupation 
      1      -8.2260      2.00000
      2      -8.2259      2.00000
      3      -5.9194      2.00000
      4      -5.9194      2.00000
      5      -5.7707      2.00000
      6      -5.7707      2.00000
      7      -5.5968      2.00000
      8      -5.5968      2.00000
      9      -5.4585      2.00000
     10      -5.4585      2.00000
     11      -5.1619      2.00000
     12      -5.1618      2.00000
     13       2.2744      2.00000
     14       2.2745      2.00000
     15       5.8130      2.00000
     16       5.8130      2.00000
     17       7.4031      2.00000
     18       7.4031      2.00000
     19      14.1577      0.00000
     20      14.1578      0.00000
     21      16.1731      0.00000
     22      16.1733      0.00000
     23      18.5632      0.00000
     24      18.5633      0.00000
     25      22.4191      0.00000
     26      22.4192      0.00000
     27      25.8806      0.00000
     28      25.8806      0.00000
     29      27.7469      0.00000
     30      27.7470      0.00000
     31      31.6538      0.00000
     32      31.6539      0.00000

 k-point   196 :       0.3750   -0.0000    0.5000
  band No.  band energies     occupation 
      1      -7.7231      2.00000
      2      -7.7231      2.00000
      3      -5.9236      2.00000
      4      -5.9236      2.00000
      5      -5.8045      2.00000
      6      -5.8044      2.00000
      7      -5.5429      2.00000
      8      -5.5428      2.00000
      9      -5.4111      2.00000
     10      -5.4111      2.00000
     11      -4.9441      2.00000
     12      -4.9441      2.00000
     13       0.5659      2.00000
     14       0.5660      2.00000
     15       6.1534      2.00000
     16       6.1535      2.00000
     17       7.6071      2.00000
     18       7.6071      2.00000
     19      13.4206      0.00000
     20      13.4208      0.00000
     21      16.9783      0.00000
     22      16.9784      0.00000
     23      18.2781      0.00000
     24      18.2782      0.00000
     25      22.1489      0.00000
     26      22.1490      0.00000
     27      25.0234      0.00000
     28      25.0236      0.00000
     29      29.5188      0.00000
     30      29.5189      0.00000
     31      31.3540      0.00000
     32      31.3543      0.00000

 k-point   197 :       0.5000   -0.0000    0.5000
  band No.  band energies     occupation 
      1      -7.5140      2.00000
      2      -7.5140      2.00000
      3      -5.9264      2.00000
      4      -5.9264      2.00000
      5      -5.7964      2.00000
      6      -5.7963      2.00000
      7      -5.5352      2.00000
      8      -5.5352      2.00000
      9      -5.3698      2.00000
     10      -5.3698      2.00000
     11      -4.7766      2.00000
     12      -4.7765      2.00000
     13      -0.2165      2.00000
     14      -0.2164      2.00000
     15       6.3507      2.00000
     16       6.3508      2.00000
     17       7.7059      2.00000
     18       7.7060      2.00000
     19      12.9646      0.00000
     20      12.9648      0.00000
     21      17.3987      0.00000
     22      17.3990      0.00000
     23      18.2484      0.00000
     24      18.2485      0.00000
     25      22.1664      0.00000
     26      22.1665      0.00000
     27      24.1350      0.00000
     28      24.1352      0.00000
     29      30.0979      0.00000
     30      30.0982      0.00000
     31      32.1408      0.00000
     32      32.1412      0.00000

 k-point   198 :      -0.3750   -0.0000    0.5000
  band No.  band energies     occupation 
      1      -7.7231      2.00000
      2      -7.7231      2.00000
      3      -5.9236      2.00000
      4      -5.9236      2.00000
      5      -5.8045      2.00000
      6      -5.8044      2.00000
      7      -5.5429      2.00000
      8      -5.5428      2.00000
      9      -5.4111      2.00000
     10      -5.4111      2.00000
     11      -4.9441      2.00000
     12      -4.9441      2.00000
     13       0.5659      2.00000
     14       0.5660      2.00000
     15       6.1534      2.00000
     16       6.1535      2.00000
     17       7.6071      2.00000
     18       7.6071      2.00000
     19      13.4206      0.00000
     20      13.4208      0.00000
     21      16.9783      0.00000
     22      16.9784      0.00000
     23      18.2781      0.00000
     24      18.2782      0.00000
     25      22.1489      0.00000
     26      22.1490      0.00000
     27      25.0234      0.00000
     28      25.0236      0.00000
     29      29.5188      0.00000
     30      29.5189      0.00000
     31      31.3540      0.00000
     32      31.3543      0.00000

 k-point   199 :      -0.2500    0.0000    0.5000
  band No.  band energies     occupation 
      1      -8.2260      2.00000
      2      -8.2259      2.00000
      3      -5.9194      2.00000
      4      -5.9194      2.00000
      5      -5.7707      2.00000
      6      -5.7707      2.00000
      7      -5.5968      2.00000
      8      -5.5968      2.00000
      9      -5.4585      2.00000
     10      -5.4585      2.00000
     11      -5.1619      2.00000
     12      -5.1618      2.00000
     13       2.2744      2.00000
     14       2.2745      2.00000
     15       5.8130      2.00000
     16       5.8130      2.00000
     17       7.4031      2.00000
     18       7.4031      2.00000
     19      14.1577      0.00000
     20      14.1578      0.00000
     21      16.1731      0.00000
     22      16.1733      0.00000
     23      18.5632      0.00000
     24      18.5633      0.00000
     25      22.4191      0.00000
     26      22.4192      0.00000
     27      25.8806      0.00000
     28      25.8806      0.00000
     29      27.7469      0.00000
     30      27.7470      0.00000
     31      31.6538      0.00000
     32      31.6539      0.00000

 k-point   200 :      -0.1250   -0.0000    0.5000
  band No.  band energies     occupation 
      1      -8.6910      2.00000
      2      -8.6910      2.00000
      3      -5.9033      2.00000
      4      -5.9032      2.00000
      5      -5.7432      2.00000
      6      -5.7432      2.00000
      7      -5.6055      2.00000
      8      -5.6054      2.00000
      9      -5.4742      2.00000
     10      -5.4742      2.00000
     11      -5.3102      2.00000
     12      -5.3102      2.00000
     13       3.7545      2.00000
     14       3.7546      2.00000
     15       5.8178      2.00000
     16       5.8179      2.00000
     17       7.3762      2.00000
     18       7.3763      2.00000
     19      13.4117      0.00000
     20      13.4118      0.00000
     21      16.7745      0.00000
     22      16.7746      0.00000
     23      18.6996      0.00000
     24      18.6997      0.00000
     25      22.3926      0.00000
     26      22.3928      0.00000
     27      25.0255      0.00000
     28      25.0256      0.00000
     29      28.5355      0.00000
     30      28.5356      0.00000
     31      31.6106      0.00000
     32      31.6107      0.00000

 k-point   201 :      -0.0000    0.1250    0.5000
  band No.  band energies     occupation 
      1      -8.6910      2.00000
      2      -8.6910      2.00000
      3      -5.9033      2.00000
      4      -5.9032      2.00000
      5      -5.7432      2.00000
      6      -5.7432      2.00000
      7      -5.6055      2.00000
      8      -5.6054      2.00000
      9      -5.4742      2.00000
     10      -5.4742      2.00000
     11      -5.3102      2.00000
     12      -5.3102      2.00000
     13       3.7545      2.00000
     14       3.7546      2.00000
     15       5.8178      2.00000
     16       5.8179      2.00000
     17       7.3762      2.00000
     18       7.3763      2.00000
     19      13.4117      0.00000
     20      13.4118      0.00000
     21      16.7745      0.00000
     22      16.7746      0.00000
     23      18.6996      0.00000
     24      18.6997      0.00000
     25      22.3926      0.00000
     26      22.3928      0.00000
     27      25.0255      0.00000
     28      25.0256      0.00000
     29      28.5355      0.00000
     30      28.5356      0.00000
     31      31.6106      0.00000
     32      31.6107      0.00000

 k-point   202 :       0.1250    0.1250    0.5000
  band No.  band energies     occupation 
      1      -8.4372      2.00000
      2      -8.4372      2.00000
      3      -5.9004      2.00000
      4      -5.9004      2.00000
      5      -5.7531      2.00000
      6      -5.7531      2.00000
      7      -5.5926      2.00000
      8      -5.5926      2.00000
      9      -5.5021      2.00000
     10      -5.5021      2.00000
     11      -5.2557      2.00000
     12      -5.2557      2.00000
     13       3.0986      2.00000
     14       3.0987      2.00000
     15       5.9880      2.00000
     16       5.9880      2.00000
     17       6.6078      2.00000
     18       6.6079      2.00000
     19      14.4790      0.00000
     20      14.4790      0.00000
     21      16.5607      0.00000
     22      16.5608      0.00000
     23      18.1153      0.00000
     24      18.1154      0.00000
     25      24.1308      0.00000
     26      24.1309      0.00000
     27      25.5491      0.00000
     28      25.5493      0.00000
     29      27.9253      0.00000
     30      27.9253      0.00000
     31      30.8114      0.00000
     32      30.8115      0.00000

 k-point   203 :       0.2500    0.1250    0.5000
  band No.  band energies     occupation 
      1      -7.9810      2.00000
      2      -7.9810      2.00000
      3      -5.8768      2.00000
      4      -5.8767      2.00000
      5      -5.7453      2.00000
      6      -5.7453      2.00000
      7      -5.5851      2.00000
      8      -5.5851      2.00000
      9      -5.5289      2.00000
     10      -5.5289      2.00000
     11      -5.0830      2.00000
     12      -5.0830      2.00000
     13       1.8837      2.00000
     14       1.8838      2.00000
     15       5.7539      2.00000
     16       5.7540      2.00000
     17       6.4912      2.00000
     18       6.4913      2.00000
     19      14.8446      0.00000
     20      14.8448      0.00000
     21      16.6021      0.00000
     22      16.6022      0.00000
     23      18.0902      0.00000
     24      18.0903      0.00000
     25      23.7728      0.00000
     26      23.7729      0.00000
     27      25.4766      0.00000
     28      25.4766      0.00000
     29      28.4410      0.00000
     30      28.4411      0.00000
     31      29.8351      0.00000
     32      29.8352      0.00000

 k-point   204 :       0.3750    0.1250    0.5000
  band No.  band energies     occupation 
      1      -7.6093      2.00000
      2      -7.6093      2.00000
      3      -5.8899      2.00000
      4      -5.8899      2.00000
      5      -5.7682      2.00000
      6      -5.7681      2.00000
      7      -5.5770      2.00000
      8      -5.5770      2.00000
      9      -5.4359      2.00000
     10      -5.4359      2.00000
     11      -4.7440      2.00000
     12      -4.7440      2.00000
     13       0.4838      2.00000
     14       0.4839      2.00000
     15       5.8232      2.00000
     16       5.8233      2.00000
     17       6.8219      2.00000
     18       6.8219      2.00000
     19      13.9993      0.00000
     20      13.9995      0.00000
     21      16.8712      0.00000
     22      16.8713      0.00000
     23      18.3730      0.00000
     24      18.3731      0.00000
     25      22.3655      0.00000
     26      22.3655      0.00000
     27      25.0302      0.00000
     28      25.0304      0.00000
     29      29.1499      0.00000
     30      29.1501      0.00000
     31      30.9526      0.00000
     32      30.9528      0.00000

 k-point   205 :       0.5000    0.1250    0.5000
  band No.  band energies     occupation 
      1      -7.5549      2.00000
      2      -7.5549      2.00000
      3      -5.8971      2.00000
      4      -5.8971      2.00000
      5      -5.8337      2.00000
      6      -5.8336      2.00000
      7      -5.5723      2.00000
      8      -5.5723      2.00000
      9      -5.3756      2.00000
     10      -5.3756      2.00000
     11      -4.4743      2.00000
     12      -4.4743      2.00000
     13       0.0246      2.00000
     14       0.0247      2.00000
     15       6.1345      2.00000
     16       6.1346      2.00000
     17       6.9275      2.00000
     18       6.9275      2.00000
     19      13.6025      0.00000
     20      13.6027      0.00000
     21      16.4460      0.00000
     22      16.4461      0.00000
     23      18.4197      0.00000
     24      18.4198      0.00000
     25      21.2800      0.00000
     26      21.2801      0.00000
     27      25.7092      0.00000
     28      25.7094      0.00000
     29      29.1711      0.00000
     30      29.1713      0.00000
     31      31.7461      0.00000
     32      31.7463      0.00000

 k-point   206 :      -0.3750    0.1250    0.5000
  band No.  band energies     occupation 
      1      -7.8273      2.00000
      2      -7.8273      2.00000
      3      -5.8993      2.00000
      4      -5.8992      2.00000
      5      -5.8392      2.00000
      6      -5.8391      2.00000
      7      -5.5857      2.00000
      8      -5.5856      2.00000
      9      -5.4103      2.00000
     10      -5.4103      2.00000
     11      -4.7024      2.00000
     12      -4.7023      2.00000
     13       1.1038      2.00000
     14       1.1039      2.00000
     15       5.9783      2.00000
     16       5.9784      2.00000
     17       7.0069      2.00000
     18       7.0069      2.00000
     19      13.8918      0.00000
     20      13.8920      0.00000
     21      15.7450      0.00000
     22      15.7451      0.00000
     23      18.6581      0.00000
     24      18.6583      0.00000
     25      20.7917      0.00000
     26      20.7918      0.00000
     27      26.5502      0.00000
     28      26.5504      0.00000
     29      28.7441      0.00000
     30      28.7442      0.00000
     31      30.8788      0.00000
     32      30.8792      0.00000

 k-point   207 :      -0.2500    0.1250    0.5000
  band No.  band energies     occupation 
      1      -8.2723      2.00000
      2      -8.2722      2.00000
      3      -5.8705      2.00000
      4      -5.8705      2.00000
      5      -5.7776      2.00000
      6      -5.7776      2.00000
      7      -5.6477      2.00000
      8      -5.6476      2.00000
      9      -5.4727      2.00000
     10      -5.4727      2.00000
     11      -5.0173      2.00000
     12      -5.0172      2.00000
     13       2.9459      2.00000
     14       2.9460      2.00000
     15       5.4809      2.00000
     16       5.4810      2.00000
     17       6.9871      2.00000
     18       6.9872      2.00000
     19      14.2855      0.00000
     20      14.2856      0.00000
     21      15.5708      0.00000
     22      15.5709      0.00000
     23      19.2367      0.00000
     24      19.2368      0.00000
     25      20.5027      0.00000
     26      20.5029      0.00000
     27      25.8278      0.00000
     28      25.8279      0.00000
     29      27.9303      0.00000
     30      27.9306      0.00000
     31      31.7398      0.00000
     32      31.7402      0.00000

 k-point   208 :      -0.1250    0.1250    0.5000
  band No.  band energies     occupation 
      1      -8.6227      2.00000
      2      -8.6226      2.00000
      3      -5.8494      2.00000
      4      -5.8494      2.00000
      5      -5.7699      2.00000
      6      -5.7699      2.00000
      7      -5.6416      2.00000
      8      -5.6415      2.00000
      9      -5.4964      2.00000
     10      -5.4963      2.00000
     11      -5.2154      2.00000
     12      -5.2153      2.00000
     13       4.0479      2.00000
     14       4.0479      2.00000
     15       5.5075      2.00000
     16       5.5076      2.00000
     17       7.0627      2.00000
     18       7.0627      2.00000
     19      13.6998      0.00000
     20      13.6998      0.00000
     21      16.4450      0.00000
     22      16.4451      0.00000
     23      19.3003      0.00000
     24      19.3005      0.00000
     25      20.7285      0.00000
     26      20.7288      0.00000
     27      24.8824      0.00000
     28      24.8826      0.00000
     29      28.4781      0.00000
     30      28.4783      0.00000
     31      32.4510      0.00000
     32      32.4512      0.00000

 k-point   209 :      -0.0000    0.2500    0.5000
  band No.  band energies     occupation 
      1      -8.2260      2.00000
      2      -8.2259      2.00000
      3      -5.9194      2.00000
      4      -5.9194      2.00000
      5      -5.7707      2.00000
      6      -5.7707      2.00000
      7      -5.5968      2.00000
      8      -5.5968      2.00000
      9      -5.4585      2.00000
     10      -5.4585      2.00000
     11      -5.1619      2.00000
     12      -5.1618      2.00000
     13       2.2744      2.00000
     14       2.2745      2.00000
     15       5.8130      2.00000
     16       5.8130      2.00000
     17       7.4031      2.00000
     18       7.4031      2.00000
     19      14.1577      0.00000
     20      14.1578      0.00000
     21      16.1731      0.00000
     22      16.1733      0.00000
     23      18.5632      0.00000
     24      18.5633      0.00000
     25      22.4191      0.00000
     26      22.4192      0.00000
     27      25.8806      0.00000
     28      25.8806      0.00000
     29      27.7469      0.00000
     30      27.7470      0.00000
     31      31.6538      0.00000
     32      31.6539      0.00000

 k-point   210 :       0.1250    0.2500    0.5000
  band No.  band energies     occupation 
      1      -7.9810      2.00000
      2      -7.9810      2.00000
      3      -5.8768      2.00000
      4      -5.8767      2.00000
      5      -5.7453      2.00000
      6      -5.7453      2.00000
      7      -5.5851      2.00000
      8      -5.5851      2.00000
      9      -5.5289      2.00000
     10      -5.5289      2.00000
     11      -5.0830      2.00000
     12      -5.0830      2.00000
     13       1.8837      2.00000
     14       1.8838      2.00000
     15       5.7539      2.00000
     16       5.7540      2.00000
     17       6.4912      2.00000
     18       6.4913      2.00000
     19      14.8446      0.00000
     20      14.8448      0.00000
     21      16.6021      0.00000
     22      16.6022      0.00000
     23      18.0902      0.00000
     24      18.0903      0.00000
     25      23.7728      0.00000
     26      23.7729      0.00000
     27      25.4766      0.00000
     28      25.4766      0.00000
     29      28.4410      0.00000
     30      28.4411      0.00000
     31      29.8351      0.00000
     32      29.8352      0.00000

 k-point   211 :       0.2500    0.2500    0.5000
  band No.  band energies     occupation 
      1      -7.6999      2.00000
      2      -7.6998      2.00000
      3      -5.8569      2.00000
      4      -5.8569      2.00000
      5      -5.6886      2.00000
      6      -5.6886      2.00000
      7      -5.6346      2.00000
      8      -5.6346      2.00000
      9      -5.5237      2.00000
     10      -5.5237      2.00000
     11      -4.7210      2.00000
     12      -4.7209      2.00000
     13       1.5385      2.00000
     14       1.5385      2.00000
     15       4.4775      2.00000
     16       4.4775      2.00000
     17       6.5774      2.00000
     18       6.5774      2.00000
     19      15.1831      0.00000
     20      15.1832      0.00000
     21      16.5862      0.00000
     22      16.5862      0.00000
     23      17.6792      0.00000
     24      17.6793      0.00000
     25      23.1565      0.00000
     26      23.1565      0.00000
     27      25.2620      0.00000
     28      25.2621      0.00000
     29      28.9226      0.00000
     30      28.9227      0.00000
     31      31.4407      0.00000
     32      31.4410      0.00000

 k-point   212 :       0.3750    0.2500    0.5000
  band No.  band energies     occupation 
      1      -7.5816      2.00000
      2      -7.5815      2.00000
      3      -5.9063      2.00000
      4      -5.9063      2.00000
      5      -5.7246      2.00000
      6      -5.7246      2.00000
      7      -5.6011      2.00000
      8      -5.6010      2.00000
      9      -5.4275      2.00000
     10      -5.4275      2.00000
     11      -4.1116      2.00000
     12      -4.1115      2.00000
     13       0.8358      2.00000
     14       0.8359      2.00000
     15       4.1035      2.00000
     16       4.1036      2.00000
     17       6.7402      2.00000
     18       6.7402      2.00000
     19      14.7514      0.00000
     20      14.7515      0.00000
     21      15.6404      0.00000
     22      15.6405      0.00000
     23      17.8117      0.00000
     24      17.8119      0.00000
     25      22.4063      0.00000
     26      22.4065      0.00000
     27      25.4736      0.00000
     28      25.4739      0.00000
     29      28.8283      0.00000
     30      28.8283      0.00000
     31      32.8680      0.00000
     32      32.8682      0.00000

 k-point   213 :       0.5000    0.2500    0.5000
  band No.  band energies     occupation 
      1      -7.6592      2.00000
      2      -7.6592      2.00000
      3      -5.9291      2.00000
      4      -5.9291      2.00000
      5      -5.7304      2.00000
      6      -5.7304      2.00000
      7      -5.6152      2.00000
      8      -5.6151      2.00000
      9      -5.3699      2.00000
     10      -5.3699      2.00000
     11      -3.8462      2.00000
     12      -3.8462      2.00000
     13       0.7472      2.00000
     14       0.7473      2.00000
     15       4.5863      2.00000
     16       4.5864      2.00000
     17       6.5071      2.00000
     18       6.5072      2.00000
     19      13.6486      0.00000
     20      13.6487      0.00000
     21      15.2944      0.00000
     22      15.2945      0.00000
     23      18.4980      0.00000
     24      18.4981      0.00000
     25      21.4524      0.00000
     26      21.4526      0.00000
     27      25.5594      0.00000
     28      25.5597      0.00000
     29      29.0059      0.00000
     30      29.0059      0.00000
     31      32.5879      0.00000
     32      32.5882      0.00000

 k-point   214 :      -0.3750    0.2500    0.5000
  band No.  band energies     occupation 
      1      -7.8674      2.00000
      2      -7.8673      2.00000
      3      -5.9000      2.00000
      4      -5.9000      2.00000
      5      -5.7258      2.00000
      6      -5.7258      2.00000
      7      -5.6416      2.00000
      8      -5.6416      2.00000
      9      -5.4038      2.00000
     10      -5.4037      2.00000
     11      -4.2590      2.00000
     12      -4.2590      2.00000
     13       2.0179      2.00000
     14       2.0180      2.00000
     15       4.7856      2.00000
     16       4.7857      2.00000
     17       6.2558      2.00000
     18       6.2559      2.00000
     19      12.9053      0.00000
     20      12.9054      0.00000
     21      15.7317      0.00000
     22      15.7318      0.00000
     23      19.3049      0.00000
     24      19.3050      0.00000
     25      20.5368      0.00000
     26      20.5370      0.00000
     27      25.7235      0.00000
     28      25.7239      0.00000
     29      27.9374      0.00000
     30      27.9375      0.00000
     31      32.1672      0.00000
     32      32.1676      0.00000

 k-point   215 :      -0.2500    0.2500    0.5000
  band No.  band energies     occupation 
      1      -8.1157      2.00000
      2      -8.1156      2.00000
      3      -5.8453      2.00000
      4      -5.8452      2.00000
      5      -5.7389      2.00000
      6      -5.7389      2.00000
      7      -5.6760      2.00000
      8      -5.6759      2.00000
      9      -5.4715      2.00000
     10      -5.4715      2.00000
     11      -4.7284      2.00000
     12      -4.7284      2.00000
     13       3.5462      2.00000
     14       3.5462      2.00000
     15       4.3983      2.00000
     16       4.3984      2.00000
     17       6.4499      2.00000
     18       6.4500      2.00000
     19      13.3823      0.00000
     20      13.3824      0.00000
     21      15.8988      0.00000
     22      15.8989      0.00000
     23      19.6028      0.00000
     24      19.6029      0.00000
     25      20.1394      0.00000
     26      20.1397      0.00000
     27      26.1192      0.00000
     28      26.1193      0.00000
     29      26.6722      0.00000
     30      26.6726      0.00000
     31      32.0991      0.00000
     32      32.0995      0.00000

 k-point   216 :      -0.1250    0.2500    0.5000
  band No.  band energies     occupation 
      1      -8.2723      2.00000
      2      -8.2722      2.00000
      3      -5.8705      2.00000
      4      -5.8705      2.00000
      5      -5.7776      2.00000
      6      -5.7776      2.00000
      7      -5.6477      2.00000
      8      -5.6476      2.00000
      9      -5.4727      2.00000
     10      -5.4727      2.00000
     11      -5.0173      2.00000
     12      -5.0172      2.00000
     13       2.9459      2.00000
     14       2.9460      2.00000
     15       5.4809      2.00000
     16       5.4810      2.00000
     17       6.9871      2.00000
     18       6.9872      2.00000
     19      14.2855      0.00000
     20      14.2856      0.00000
     21      15.5708      0.00000
     22      15.5709      0.00000
     23      19.2367      0.00000
     24      19.2368      0.00000
     25      20.5027      0.00000
     26      20.5029      0.00000
     27      25.8278      0.00000
     28      25.8279      0.00000
     29      27.9303      0.00000
     30      27.9306      0.00000
     31      31.7398      0.00000
     32      31.7402      0.00000

 k-point   217 :      -0.0000    0.3750    0.5000
  band No.  band energies     occupation 
      1      -7.7231      2.00000
      2      -7.7231      2.00000
      3      -5.9236      2.00000
      4      -5.9236      2.00000
      5      -5.8045      2.00000
      6      -5.8044      2.00000
      7      -5.5429      2.00000
      8      -5.5428      2.00000
      9      -5.4111      2.00000
     10      -5.4111      2.00000
     11      -4.9441      2.00000
     12      -4.9441      2.00000
     13       0.5659      2.00000
     14       0.5660      2.00000
     15       6.1534      2.00000
     16       6.1535      2.00000
     17       7.6071      2.00000
     18       7.6071      2.00000
     19      13.4206      0.00000
     20      13.4208      0.00000
     21      16.9783      0.00000
     22      16.9784      0.00000
     23      18.2781      0.00000
     24      18.2782      0.00000
     25      22.1489      0.00000
     26      22.1490      0.00000
     27      25.0234      0.00000
     28      25.0236      0.00000
     29      29.5188      0.00000
     30      29.5189      0.00000
     31      31.3540      0.00000
     32      31.3543      0.00000

 k-point   218 :       0.1250    0.3750    0.5000
  band No.  band energies     occupation 
      1      -7.6093      2.00000
      2      -7.6093      2.00000
      3      -5.8899      2.00000
      4      -5.8899      2.00000
      5      -5.7682      2.00000
      6      -5.7681      2.00000
      7      -5.5770      2.00000
      8      -5.5770      2.00000
      9      -5.4359      2.00000
     10      -5.4359      2.00000
     11      -4.7440      2.00000
     12      -4.7440      2.00000
     13       0.4838      2.00000
     14       0.4839      2.00000
     15       5.8232      2.00000
     16       5.8233      2.00000
     17       6.8219      2.00000
     18       6.8219      2.00000
     19      13.9993      0.00000
     20      13.9995      0.00000
     21      16.8712      0.00000
     22      16.8713      0.00000
     23      18.3730      0.00000
     24      18.3731      0.00000
     25      22.3655      0.00000
     26      22.3655      0.00000
     27      25.0302      0.00000
     28      25.0304      0.00000
     29      29.1499      0.00000
     30      29.1501      0.00000
     31      30.9526      0.00000
     32      30.9528      0.00000

 k-point   219 :       0.2500    0.3750    0.5000
  band No.  band energies     occupation 
      1      -7.5816      2.00000
      2      -7.5815      2.00000
      3      -5.9063      2.00000
      4      -5.9063      2.00000
      5      -5.7246      2.00000
      6      -5.7246      2.00000
      7      -5.6011      2.00000
      8      -5.6010      2.00000
      9      -5.4275      2.00000
     10      -5.4275      2.00000
     11      -4.1116      2.00000
     12      -4.1115      2.00000
     13       0.8358      2.00000
     14       0.8359      2.00000
     15       4.1035      2.00000
     16       4.1036      2.00000
     17       6.7402      2.00000
     18       6.7402      2.00000
     19      14.7514      0.00000
     20      14.7515      0.00000
     21      15.6404      0.00000
     22      15.6405      0.00000
     23      17.8117      0.00000
     24      17.8119      0.00000
     25      22.4063      0.00000
     26      22.4065      0.00000
     27      25.4736      0.00000
     28      25.4739      0.00000
     29      28.8283      0.00000
     30      28.8283      0.00000
     31      32.8680      0.00000
     32      32.8682      0.00000

 k-point   220 :       0.3750    0.3750    0.5000
  band No.  band energies     occupation 
      1      -7.6568      2.00000
      2      -7.6568      2.00000
      3      -5.9183      2.00000
      4      -5.9183      2.00000
      5      -5.7342      2.00000
      6      -5.7342      2.00000
      7      -5.5625      2.00000
      8      -5.5625      2.00000
      9      -5.3684      2.00000
     10      -5.3683      2.00000
     11      -3.3803      2.00000
     12      -3.3803      2.00000
     13       1.4354      2.00000
     14       1.4355      2.00000
     15       2.7599      2.00000
     16       2.7599      2.00000
     17       6.5501      2.00000
     18       6.5501      2.00000
     19      13.3626      0.00000
     20      13.3627      0.00000
     21      16.1653      0.00000
     22      16.1654      0.00000
     23      17.1754      0.00000
     24      17.1754      0.00000
     25      22.1223      0.00000
     26      22.1224      0.00000
     27      25.7418      0.00000
     28      25.7420      0.00000
     29      28.8453      0.00000
     30      28.8453      0.00000
     31      33.3437      0.00000
     32      33.3439      0.00000

 k-point   221 :       0.5000    0.3750    0.5000
  band No.  band energies     occupation 
      1      -7.7635      2.00000
      2      -7.7634      2.00000
      3      -5.9064      2.00000
      4      -5.9064      2.00000
      5      -5.7216      2.00000
      6      -5.7216      2.00000
      7      -5.5922      2.00000
      8      -5.5922      2.00000
      9      -5.3087      2.00000
     10      -5.3086      2.00000
     11      -3.1708      2.00000
     12      -3.1708      2.00000
     13       1.7685      2.00000
     14       1.7686      2.00000
     15       3.0804      2.00000
     16       3.0805      2.00000
     17       5.9074      2.00000
     18       5.9074      2.00000
     19      12.1234      0.00000
     20      12.1235      0.00000
     21      16.3597      0.00000
     22      16.3599      0.00000
     23      18.0898      0.00000
     24      18.0900      0.00000
     25      20.8065      0.00000
     26      20.8065      0.00000
     27      25.8227      0.00000
     28      25.8229      0.00000
     29      29.1573      0.00000
     30      29.1573      0.00000
     31      33.0619      0.00000
     32      33.0621      0.00000

 k-point   222 :      -0.3750    0.3750    0.5000
  band No.  band energies     occupation 
      1      -7.8420      2.00000
      2      -7.8419      2.00000
      3      -5.8909      2.00000
      4      -5.8909      2.00000
      5      -5.7101      2.00000
      6      -5.7101      2.00000
      7      -5.6217      2.00000
      8      -5.6217      2.00000
      9      -5.3409      2.00000
     10      -5.3409      2.00000
     11      -3.6634      2.00000
     12      -3.6634      2.00000
     13       2.6334      2.00000
     14       2.6335      2.00000
     15       3.4223      2.00000
     16       3.4223      2.00000
     17       5.7456      2.00000
     18       5.7457      2.00000
     19      11.8671      0.00000
     20      11.8673      0.00000
     21      16.3126      0.00000
     22      16.3127      0.00000
     23      19.2818      0.00000
     24      19.2818      0.00000
     25      20.0943      0.00000
     26      20.0944      0.00000
     27      25.5834      0.00000
     28      25.5836      0.00000
     29      28.4085      0.00000
     30      28.4086      0.00000
     31      32.7000      0.00000
     32      32.7002      0.00000

 k-point   223 :      -0.2500    0.3750    0.5000
  band No.  band energies     occupation 
      1      -7.8674      2.00000
      2      -7.8673      2.00000
      3      -5.9000      2.00000
      4      -5.9000      2.00000
      5      -5.7258      2.00000
      6      -5.7258      2.00000
      7      -5.6416      2.00000
      8      -5.6416      2.00000
      9      -5.4038      2.00000
     10      -5.4037      2.00000
     11      -4.2590      2.00000
     12      -4.2590      2.00000
     13       2.0179      2.00000
     14       2.0180      2.00000
     15       4.7856      2.00000
     16       4.7857      2.00000
     17       6.2558      2.00000
     18       6.2559      2.00000
     19      12.9053      0.00000
     20      12.9054      0.00000
     21      15.7317      0.00000
     22      15.7318      0.00000
     23      19.3049      0.00000
     24      19.3050      0.00000
     25      20.5368      0.00000
     26      20.5370      0.00000
     27      25.7235      0.00000
     28      25.7239      0.00000
     29      27.9374      0.00000
     30      27.9375      0.00000
     31      32.1672      0.00000
     32      32.1676      0.00000

 k-point   224 :      -0.1250    0.3750    0.5000
  band No.  band energies     occupation 
      1      -7.8273      2.00000
      2      -7.8273      2.00000
      3      -5.8993      2.00000
      4      -5.8992      2.00000
      5      -5.8392      2.00000
      6      -5.8391      2.00000
      7      -5.5857      2.00000
      8      -5.5856      2.00000
      9      -5.4103      2.00000
     10      -5.4103      2.00000
     11      -4.7024      2.00000
     12      -4.7023      2.00000
     13       1.1038      2.00000
     14       1.1039      2.00000
     15       5.9783      2.00000
     16       5.9784      2.00000
     17       7.0069      2.00000
     18       7.0069      2.00000
     19      13.8918      0.00000
     20      13.8920      0.00000
     21      15.7450      0.00000
     22      15.7451      0.00000
     23      18.6581      0.00000
     24      18.6583      0.00000
     25      20.7917      0.00000
     26      20.7918      0.00000
     27      26.5502      0.00000
     28      26.5504      0.00000
     29      28.7441      0.00000
     30      28.7442      0.00000
     31      30.8788      0.00000
     32      30.8792      0.00000

 k-point   225 :      -0.0000    0.5000    0.5000
  band No.  band energies     occupation 
      1      -7.5140      2.00000
      2      -7.5140      2.00000
      3      -5.9264      2.00000
      4      -5.9264      2.00000
      5      -5.7964      2.00000
      6      -5.7963      2.00000
      7      -5.5352      2.00000
      8      -5.5352      2.00000
      9      -5.3698      2.00000
     10      -5.3698      2.00000
     11      -4.7766      2.00000
     12      -4.7765      2.00000
     13      -0.2165      2.00000
     14      -0.2164      2.00000
     15       6.3507      2.00000
     16       6.3508      2.00000
     17       7.7059      2.00000
     18       7.7060      2.00000
     19      12.9646      0.00000
     20      12.9648      0.00000
     21      17.3987      0.00000
     22      17.3990      0.00000
     23      18.2484      0.00000
     24      18.2485      0.00000
     25      22.1664      0.00000
     26      22.1665      0.00000
     27      24.1350      0.00000
     28      24.1352      0.00000
     29      30.0979      0.00000
     30      30.0982      0.00000
     31      32.1408      0.00000
     32      32.1412      0.00000

 k-point   226 :       0.1250    0.5000    0.5000
  band No.  band energies     occupation 
      1      -7.5549      2.00000
      2      -7.5549      2.00000
      3      -5.8971      2.00000
      4      -5.8971      2.00000
      5      -5.8337      2.00000
      6      -5.8336      2.00000
      7      -5.5723      2.00000
      8      -5.5723      2.00000
      9      -5.3756      2.00000
     10      -5.3756      2.00000
     11      -4.4743      2.00000
     12      -4.4743      2.00000
     13       0.0246      2.00000
     14       0.0247      2.00000
     15       6.1345      2.00000
     16       6.1346      2.00000
     17       6.9275      2.00000
     18       6.9275      2.00000
     19      13.6025      0.00000
     20      13.6027      0.00000
     21      16.4460      0.00000
     22      16.4461      0.00000
     23      18.4197      0.00000
     24      18.4198      0.00000
     25      21.2800      0.00000
     26      21.2801      0.00000
     27      25.7092      0.00000
     28      25.7094      0.00000
     29      29.1711      0.00000
     30      29.1713      0.00000
     31      31.7461      0.00000
     32      31.7463      0.00000

 k-point   227 :       0.2500    0.5000    0.5000
  band No.  band energies     occupation 
      1      -7.6592      2.00000
      2      -7.6592      2.00000
      3      -5.9291      2.00000
      4      -5.9291      2.00000
      5      -5.7304      2.00000
      6      -5.7304      2.00000
      7      -5.6152      2.00000
      8      -5.6151      2.00000
      9      -5.3699      2.00000
     10      -5.3699      2.00000
     11      -3.8462      2.00000
     12      -3.8462      2.00000
     13       0.7472      2.00000
     14       0.7473      2.00000
     15       4.5863      2.00000
     16       4.5864      2.00000
     17       6.5071      2.00000
     18       6.5072      2.00000
     19      13.6486      0.00000
     20      13.6487      0.00000
     21      15.2944      0.00000
     22      15.2945      0.00000
     23      18.4980      0.00000
     24      18.4981      0.00000
     25      21.4524      0.00000
     26      21.4526      0.00000
     27      25.5594      0.00000
     28      25.5597      0.00000
     29      29.0059      0.00000
     30      29.0059      0.00000
     31      32.5879      0.00000
     32      32.5882      0.00000

 k-point   228 :       0.3750    0.5000    0.5000
  band No.  band energies     occupation 
      1      -7.7635      2.00000
      2      -7.7634      2.00000
      3      -5.9064      2.00000
      4      -5.9064      2.00000
      5      -5.7216      2.00000
      6      -5.7216      2.00000
      7      -5.5922      2.00000
      8      -5.5922      2.00000
      9      -5.3087      2.00000
     10      -5.3086      2.00000
     11      -3.1708      2.00000
     12      -3.1708      2.00000
     13       1.7685      2.00000
     14       1.7686      2.00000
     15       3.0804      2.00000
     16       3.0805      2.00000
     17       5.9074      2.00000
     18       5.9074      2.00000
     19      12.1234      0.00000
     20      12.1235      0.00000
     21      16.3597      0.00000
     22      16.3599      0.00000
     23      18.0898      0.00000
     24      18.0900      0.00000
     25      20.8065      0.00000
     26      20.8065      0.00000
     27      25.8227      0.00000
     28      25.8229      0.00000
     29      29.1573      0.00000
     30      29.1573      0.00000
     31      33.0619      0.00000
     32      33.0621      0.00000

 k-point   229 :       0.5000    0.5000    0.5000
  band No.  band energies     occupation 
      1      -7.8054      2.00000
      2      -7.8054      2.00000
      3      -5.8935      2.00000
      4      -5.8935      2.00000
      5      -5.7160      2.00000
      6      -5.7160      2.00000
      7      -5.6013      2.00000
      8      -5.6013      2.00000
      9      -5.2604      2.00000
     10      -5.2603      2.00000
     11      -2.8260      2.00000
     12      -2.8260      2.00000
     13       1.9380      2.00000
     14       1.9381      2.00000
     15       3.0417      2.00000
     16       3.0417      2.00000
     17       5.2367      2.00000
     18       5.2367      2.00000
     19      11.6164      0.00000
     20      11.6165      0.00000
     21      16.7368      0.00000
     22      16.7370      0.00000
     23      19.0388      0.00000
     24      19.0389      0.00000
     25      19.0885      0.00000
     26      19.0886      0.00000
     27      26.2401      0.00000
     28      26.2403      0.00000
     29      29.5251      0.00000
     30      29.5252      0.00000
     31      33.1719      0.00000
     32      33.1720      0.00000

 k-point   230 :      -0.3750    0.5000    0.5000
  band No.  band energies     occupation 
      1      -7.7635      2.00000
      2      -7.7634      2.00000
      3      -5.9064      2.00000
      4      -5.9064      2.00000
      5      -5.7216      2.00000
      6      -5.7216      2.00000
      7      -5.5922      2.00000
      8      -5.5922      2.00000
      9      -5.3087      2.00000
     10      -5.3086      2.00000
     11      -3.1708      2.00000
     12      -3.1708      2.00000
     13       1.7685      2.00000
     14       1.7686      2.00000
     15       3.0804      2.00000
     16       3.0805      2.00000
     17       5.9074      2.00000
     18       5.9074      2.00000
     19      12.1234      0.00000
     20      12.1235      0.00000
     21      16.3597      0.00000
     22      16.3599      0.00000
     23      18.0898      0.00000
     24      18.0900      0.00000
     25      20.8065      0.00000
     26      20.8065      0.00000
     27      25.8227      0.00000
     28      25.8229      0.00000
     29      29.1573      0.00000
     30      29.1573      0.00000
     31      33.0619      0.00000
     32      33.0621      0.00000

 k-point   231 :      -0.2500    0.5000    0.5000
  band No.  band energies     occupation 
      1      -7.6592      2.00000
      2      -7.6592      2.00000
      3      -5.9291      2.00000
      4      -5.9291      2.00000
      5      -5.7304      2.00000
      6      -5.7304      2.00000
      7      -5.6152      2.00000
      8      -5.6151      2.00000
      9      -5.3699      2.00000
     10      -5.3699      2.00000
     11      -3.8462      2.00000
     12      -3.8462      2.00000
     13       0.7472      2.00000
     14       0.7473      2.00000
     15       4.5863      2.00000
     16       4.5864      2.00000
     17       6.5071      2.00000
     18       6.5072      2.00000
     19      13.6486      0.00000
     20      13.6487      0.00000
     21      15.2944      0.00000
     22      15.2945      0.00000
     23      18.4980      0.00000
     24      18.4981      0.00000
     25      21.4524      0.00000
     26      21.4526      0.00000
     27      25.5594      0.00000
     28      25.5597      0.00000
     29      29.0059      0.00000
     30      29.0059      0.00000
     31      32.5879      0.00000
     32      32.5882      0.00000

 k-point   232 :      -0.1250    0.5000    0.5000
  band No.  band energies     occupation 
      1      -7.5549      2.00000
      2      -7.5549      2.00000
      3      -5.8971      2.00000
      4      -5.8971      2.00000
      5      -5.8337      2.00000
      6      -5.8336      2.00000
      7      -5.5723      2.00000
      8      -5.5723      2.00000
      9      -5.3756      2.00000
     10      -5.3756      2.00000
     11      -4.4743      2.00000
     12      -4.4743      2.00000
     13       0.0246      2.00000
     14       0.0247      2.00000
     15       6.1345      2.00000
     16       6.1346      2.00000
     17       6.9275      2.00000
     18       6.9275      2.00000
     19      13.6025      0.00000
     20      13.6027      0.00000
     21      16.4460      0.00000
     22      16.4461      0.00000
     23      18.4197      0.00000
     24      18.4198      0.00000
     25      21.2800      0.00000
     26      21.2801      0.00000
     27      25.7092      0.00000
     28      25.7094      0.00000
     29      29.1711      0.00000
     30      29.1713      0.00000
     31      31.7461      0.00000
     32      31.7463      0.00000

 k-point   233 :       0.0000   -0.3750    0.5000
  band No.  band energies     occupation 
      1      -7.7231      2.00000
      2      -7.7231      2.00000
      3      -5.9236      2.00000
      4      -5.9236      2.00000
      5      -5.8045      2.00000
      6      -5.8044      2.00000
      7      -5.5429      2.00000
      8      -5.5428      2.00000
      9      -5.4111      2.00000
     10      -5.4111      2.00000
     11      -4.9441      2.00000
     12      -4.9441      2.00000
     13       0.5659      2.00000
     14       0.5660      2.00000
     15       6.1534      2.00000
     16       6.1535      2.00000
     17       7.6071      2.00000
     18       7.6071      2.00000
     19      13.4206      0.00000
     20      13.4208      0.00000
     21      16.9783      0.00000
     22      16.9784      0.00000
     23      18.2781      0.00000
     24      18.2782      0.00000
     25      22.1489      0.00000
     26      22.1490      0.00000
     27      25.0234      0.00000
     28      25.0236      0.00000
     29      29.5188      0.00000
     30      29.5189      0.00000
     31      31.3540      0.00000
     32      31.3543      0.00000

 k-point   234 :       0.1250   -0.3750    0.5000
  band No.  band energies     occupation 
      1      -7.8273      2.00000
      2      -7.8273      2.00000
      3      -5.8993      2.00000
      4      -5.8992      2.00000
      5      -5.8392      2.00000
      6      -5.8391      2.00000
      7      -5.5857      2.00000
      8      -5.5856      2.00000
      9      -5.4103      2.00000
     10      -5.4103      2.00000
     11      -4.7024      2.00000
     12      -4.7023      2.00000
     13       1.1038      2.00000
     14       1.1039      2.00000
     15       5.9783      2.00000
     16       5.9784      2.00000
     17       7.0069      2.00000
     18       7.0069      2.00000
     19      13.8918      0.00000
     20      13.8920      0.00000
     21      15.7450      0.00000
     22      15.7451      0.00000
     23      18.6581      0.00000
     24      18.6583      0.00000
     25      20.7917      0.00000
     26      20.7918      0.00000
     27      26.5502      0.00000
     28      26.5504      0.00000
     29      28.7441      0.00000
     30      28.7442      0.00000
     31      30.8788      0.00000
     32      30.8792      0.00000

 k-point   235 :       0.2500   -0.3750    0.5000
  band No.  band energies     occupation 
      1      -7.8674      2.00000
      2      -7.8673      2.00000
      3      -5.9000      2.00000
      4      -5.9000      2.00000
      5      -5.7258      2.00000
      6      -5.7258      2.00000
      7      -5.6416      2.00000
      8      -5.6416      2.00000
      9      -5.4038      2.00000
     10      -5.4037      2.00000
     11      -4.2590      2.00000
     12      -4.2590      2.00000
     13       2.0179      2.00000
     14       2.0180      2.00000
     15       4.7856      2.00000
     16       4.7857      2.00000
     17       6.2558      2.00000
     18       6.2559      2.00000
     19      12.9053      0.00000
     20      12.9054      0.00000
     21      15.7317      0.00000
     22      15.7318      0.00000
     23      19.3049      0.00000
     24      19.3050      0.00000
     25      20.5368      0.00000
     26      20.5370      0.00000
     27      25.7235      0.00000
     28      25.7239      0.00000
     29      27.9374      0.00000
     30      27.9375      0.00000
     31      32.1672      0.00000
     32      32.1676      0.00000

 k-point   236 :       0.3750   -0.3750    0.5000
  band No.  band energies     occupation 
      1      -7.8420      2.00000
      2      -7.8419      2.00000
      3      -5.8909      2.00000
      4      -5.8909      2.00000
      5      -5.7101      2.00000
      6      -5.7101      2.00000
      7      -5.6217      2.00000
      8      -5.6217      2.00000
      9      -5.3409      2.00000
     10      -5.3409      2.00000
     11      -3.6634      2.00000
     12      -3.6634      2.00000
     13       2.6334      2.00000
     14       2.6335      2.00000
     15       3.4223      2.00000
     16       3.4223      2.00000
     17       5.7456      2.00000
     18       5.7457      2.00000
     19      11.8671      0.00000
     20      11.8673      0.00000
     21      16.3126      0.00000
     22      16.3127      0.00000
     23      19.2818      0.00000
     24      19.2818      0.00000
     25      20.0943      0.00000
     26      20.0944      0.00000
     27      25.5834      0.00000
     28      25.5836      0.00000
     29      28.4085      0.00000
     30      28.4086      0.00000
     31      32.7000      0.00000
     32      32.7002      0.00000

 k-point   237 :       0.5000   -0.3750    0.5000
  band No.  band energies     occupation 
      1      -7.7635      2.00000
      2      -7.7634      2.00000
      3      -5.9064      2.00000
      4      -5.9064      2.00000
      5      -5.7216      2.00000
      6      -5.7216      2.00000
      7      -5.5922      2.00000
      8      -5.5922      2.00000
      9      -5.3087      2.00000
     10      -5.3086      2.00000
     11      -3.1708      2.00000
     12      -3.1708      2.00000
     13       1.7685      2.00000
     14       1.7686      2.00000
     15       3.0804      2.00000
     16       3.0805      2.00000
     17       5.9074      2.00000
     18       5.9074      2.00000
     19      12.1234      0.00000
     20      12.1235      0.00000
     21      16.3597      0.00000
     22      16.3599      0.00000
     23      18.0898      0.00000
     24      18.0900      0.00000
     25      20.8065      0.00000
     26      20.8065      0.00000
     27      25.8227      0.00000
     28      25.8229      0.00000
     29      29.1573      0.00000
     30      29.1573      0.00000
     31      33.0619      0.00000
     32      33.0621      0.00000

 k-point   238 :      -0.3750   -0.3750    0.5000
  band No.  band energies     occupation 
      1      -7.6568      2.00000
      2      -7.6568      2.00000
      3      -5.9183      2.00000
      4      -5.9183      2.00000
      5      -5.7342      2.00000
      6      -5.7342      2.00000
      7      -5.5625      2.00000
      8      -5.5625      2.00000
      9      -5.3684      2.00000
     10      -5.3683      2.00000
     11      -3.3803      2.00000
     12      -3.3803      2.00000
     13       1.4354      2.00000
     14       1.4355      2.00000
     15       2.7599      2.00000
     16       2.7599      2.00000
     17       6.5501      2.00000
     18       6.5501      2.00000
     19      13.3626      0.00000
     20      13.3627      0.00000
     21      16.1653      0.00000
     22      16.1654      0.00000
     23      17.1754      0.00000
     24      17.1754      0.00000
     25      22.1223      0.00000
     26      22.1224      0.00000
     27      25.7418      0.00000
     28      25.7420      0.00000
     29      28.8453      0.00000
     30      28.8453      0.00000
     31      33.3437      0.00000
     32      33.3439      0.00000

 k-point   239 :      -0.2500   -0.3750    0.5000
  band No.  band energies     occupation 
      1      -7.5816      2.00000
      2      -7.5815      2.00000
      3      -5.9063      2.00000
      4      -5.9063      2.00000
      5      -5.7246      2.00000
      6      -5.7246      2.00000
      7      -5.6011      2.00000
      8      -5.6010      2.00000
      9      -5.4275      2.00000
     10      -5.4275      2.00000
     11      -4.1116      2.00000
     12      -4.1115      2.00000
     13       0.8358      2.00000
     14       0.8359      2.00000
     15       4.1035      2.00000
     16       4.1036      2.00000
     17       6.7402      2.00000
     18       6.7402      2.00000
     19      14.7514      0.00000
     20      14.7515      0.00000
     21      15.6404      0.00000
     22      15.6405      0.00000
     23      17.8117      0.00000
     24      17.8119      0.00000
     25      22.4063      0.00000
     26      22.4065      0.00000
     27      25.4736      0.00000
     28      25.4739      0.00000
     29      28.8283      0.00000
     30      28.8283      0.00000
     31      32.8680      0.00000
     32      32.8682      0.00000

 k-point   240 :      -0.1250   -0.3750    0.5000
  band No.  band energies     occupation 
      1      -7.6093      2.00000
      2      -7.6093      2.00000
      3      -5.8899      2.00000
      4      -5.8899      2.00000
      5      -5.7682      2.00000
      6      -5.7681      2.00000
      7      -5.5770      2.00000
      8      -5.5770      2.00000
      9      -5.4359      2.00000
     10      -5.4359      2.00000
     11      -4.7440      2.00000
     12      -4.7440      2.00000
     13       0.4838      2.00000
     14       0.4839      2.00000
     15       5.8232      2.00000
     16       5.8233      2.00000
     17       6.8219      2.00000
     18       6.8219      2.00000
     19      13.9993      0.00000
     20      13.9995      0.00000
     21      16.8712      0.00000
     22      16.8713      0.00000
     23      18.3730      0.00000
     24      18.3731      0.00000
     25      22.3655      0.00000
     26      22.3655      0.00000
     27      25.0302      0.00000
     28      25.0304      0.00000
     29      29.1499      0.00000
     30      29.1501      0.00000
     31      30.9526      0.00000
     32      30.9528      0.00000

 k-point   241 :      -0.0000   -0.2500    0.5000
  band No.  band energies     occupation 
      1      -8.2260      2.00000
      2      -8.2259      2.00000
      3      -5.9194      2.00000
      4      -5.9194      2.00000
      5      -5.7707      2.00000
      6      -5.7707      2.00000
      7      -5.5968      2.00000
      8      -5.5968      2.00000
      9      -5.4585      2.00000
     10      -5.4585      2.00000
     11      -5.1619      2.00000
     12      -5.1618      2.00000
     13       2.2744      2.00000
     14       2.2745      2.00000
     15       5.8130      2.00000
     16       5.8130      2.00000
     17       7.4031      2.00000
     18       7.4031      2.00000
     19      14.1577      0.00000
     20      14.1578      0.00000
     21      16.1731      0.00000
     22      16.1733      0.00000
     23      18.5632      0.00000
     24      18.5633      0.00000
     25      22.4191      0.00000
     26      22.4192      0.00000
     27      25.8806      0.00000
     28      25.8806      0.00000
     29      27.7469      0.00000
     30      27.7470      0.00000
     31      31.6538      0.00000
     32      31.6539      0.00000

 k-point   242 :       0.1250   -0.2500    0.5000
  band No.  band energies     occupation 
      1      -8.2723      2.00000
      2      -8.2722      2.00000
      3      -5.8705      2.00000
      4      -5.8705      2.00000
      5      -5.7776      2.00000
      6      -5.7776      2.00000
      7      -5.6477      2.00000
      8      -5.6476      2.00000
      9      -5.4727      2.00000
     10      -5.4727      2.00000
     11      -5.0173      2.00000
     12      -5.0172      2.00000
     13       2.9459      2.00000
     14       2.9460      2.00000
     15       5.4809      2.00000
     16       5.4810      2.00000
     17       6.9871      2.00000
     18       6.9872      2.00000
     19      14.2855      0.00000
     20      14.2856      0.00000
     21      15.5708      0.00000
     22      15.5709      0.00000
     23      19.2367      0.00000
     24      19.2368      0.00000
     25      20.5027      0.00000
     26      20.5029      0.00000
     27      25.8278      0.00000
     28      25.8279      0.00000
     29      27.9303      0.00000
     30      27.9306      0.00000
     31      31.7398      0.00000
     32      31.7402      0.00000

 k-point   243 :       0.2500   -0.2500    0.5000
  band No.  band energies     occupation 
      1      -8.1157      2.00000
      2      -8.1156      2.00000
      3      -5.8453      2.00000
      4      -5.8452      2.00000
      5      -5.7389      2.00000
      6      -5.7389      2.00000
      7      -5.6760      2.00000
      8      -5.6759      2.00000
      9      -5.4715      2.00000
     10      -5.4715      2.00000
     11      -4.7284      2.00000
     12      -4.7284      2.00000
     13       3.5462      2.00000
     14       3.5462      2.00000
     15       4.3983      2.00000
     16       4.3984      2.00000
     17       6.4499      2.00000
     18       6.4500      2.00000
     19      13.3823      0.00000
     20      13.3824      0.00000
     21      15.8988      0.00000
     22      15.8989      0.00000
     23      19.6028      0.00000
     24      19.6029      0.00000
     25      20.1394      0.00000
     26      20.1397      0.00000
     27      26.1192      0.00000
     28      26.1193      0.00000
     29      26.6722      0.00000
     30      26.6726      0.00000
     31      32.0991      0.00000
     32      32.0995      0.00000

 k-point   244 :       0.3750   -0.2500    0.5000
  band No.  band energies     occupation 
      1      -7.8674      2.00000
      2      -7.8673      2.00000
      3      -5.9000      2.00000
      4      -5.9000      2.00000
      5      -5.7258      2.00000
      6      -5.7258      2.00000
      7      -5.6416      2.00000
      8      -5.6416      2.00000
      9      -5.4038      2.00000
     10      -5.4037      2.00000
     11      -4.2590      2.00000
     12      -4.2590      2.00000
     13       2.0179      2.00000
     14       2.0180      2.00000
     15       4.7856      2.00000
     16       4.7857      2.00000
     17       6.2558      2.00000
     18       6.2559      2.00000
     19      12.9053      0.00000
     20      12.9054      0.00000
     21      15.7317      0.00000
     22      15.7318      0.00000
     23      19.3049      0.00000
     24      19.3050      0.00000
     25      20.5368      0.00000
     26      20.5370      0.00000
     27      25.7235      0.00000
     28      25.7239      0.00000
     29      27.9374      0.00000
     30      27.9375      0.00000
     31      32.1672      0.00000
     32      32.1676      0.00000

 k-point   245 :       0.5000   -0.2500    0.5000
  band No.  band energies     occupation 
      1      -7.6592      2.00000
      2      -7.6592      2.00000
      3      -5.9291      2.00000
      4      -5.9291      2.00000
      5      -5.7304      2.00000
      6      -5.7304      2.00000
      7      -5.6152      2.00000
      8      -5.6151      2.00000
      9      -5.3699      2.00000
     10      -5.3699      2.00000
     11      -3.8462      2.00000
     12      -3.8462      2.00000
     13       0.7472      2.00000
     14       0.7473      2.00000
     15       4.5863      2.00000
     16       4.5864      2.00000
     17       6.5071      2.00000
     18       6.5072      2.00000
     19      13.6486      0.00000
     20      13.6487      0.00000
     21      15.2944      0.00000
     22      15.2945      0.00000
     23      18.4980      0.00000
     24      18.4981      0.00000
     25      21.4524      0.00000
     26      21.4526      0.00000
     27      25.5594      0.00000
     28      25.5597      0.00000
     29      29.0059      0.00000
     30      29.0059      0.00000
     31      32.5879      0.00000
     32      32.5882      0.00000

 k-point   246 :      -0.3750   -0.2500    0.5000
  band No.  band energies     occupation 
      1      -7.5816      2.00000
      2      -7.5815      2.00000
      3      -5.9063      2.00000
      4      -5.9063      2.00000
      5      -5.7246      2.00000
      6      -5.7246      2.00000
      7      -5.6011      2.00000
      8      -5.6010      2.00000
      9      -5.4275      2.00000
     10      -5.4275      2.00000
     11      -4.1116      2.00000
     12      -4.1115      2.00000
     13       0.8358      2.00000
     14       0.8359      2.00000
     15       4.1035      2.00000
     16       4.1036      2.00000
     17       6.7402      2.00000
     18       6.7402      2.00000
     19      14.7514      0.00000
     20      14.7515      0.00000
     21      15.6404      0.00000
     22      15.6405      0.00000
     23      17.8117      0.00000
     24      17.8119      0.00000
     25      22.4063      0.00000
     26      22.4065      0.00000
     27      25.4736      0.00000
     28      25.4739      0.00000
     29      28.8283      0.00000
     30      28.8283      0.00000
     31      32.8680      0.00000
     32      32.8682      0.00000

 k-point   247 :      -0.2500   -0.2500    0.5000
  band No.  band energies     occupation 
      1      -7.6999      2.00000
      2      -7.6998      2.00000
      3      -5.8569      2.00000
      4      -5.8569      2.00000
      5      -5.6886      2.00000
      6      -5.6886      2.00000
      7      -5.6346      2.00000
      8      -5.6346      2.00000
      9      -5.5237      2.00000
     10      -5.5237      2.00000
     11      -4.7210      2.00000
     12      -4.7209      2.00000
     13       1.5385      2.00000
     14       1.5385      2.00000
     15       4.4775      2.00000
     16       4.4775      2.00000
     17       6.5774      2.00000
     18       6.5774      2.00000
     19      15.1831      0.00000
     20      15.1832      0.00000
     21      16.5862      0.00000
     22      16.5862      0.00000
     23      17.6792      0.00000
     24      17.6793      0.00000
     25      23.1565      0.00000
     26      23.1565      0.00000
     27      25.2620      0.00000
     28      25.2621      0.00000
     29      28.9226      0.00000
     30      28.9227      0.00000
     31      31.4407      0.00000
     32      31.4410      0.00000

 k-point   248 :      -0.1250   -0.2500    0.5000
  band No.  band energies     occupation 
      1      -7.9810      2.00000
      2      -7.9810      2.00000
      3      -5.8768      2.00000
      4      -5.8767      2.00000
      5      -5.7453      2.00000
      6      -5.7453      2.00000
      7      -5.5851      2.00000
      8      -5.5851      2.00000
      9      -5.5289      2.00000
     10      -5.5289      2.00000
     11      -5.0830      2.00000
     12      -5.0830      2.00000
     13       1.8837      2.00000
     14       1.8838      2.00000
     15       5.7539      2.00000
     16       5.7540      2.00000
     17       6.4912      2.00000
     18       6.4913      2.00000
     19      14.8446      0.00000
     20      14.8448      0.00000
     21      16.6021      0.00000
     22      16.6022      0.00000
     23      18.0902      0.00000
     24      18.0903      0.00000
     25      23.7728      0.00000
     26      23.7729      0.00000
     27      25.4766      0.00000
     28      25.4766      0.00000
     29      28.4410      0.00000
     30      28.4411      0.00000
     31      29.8351      0.00000
     32      29.8352      0.00000

 k-point   249 :      -0.0000   -0.1250    0.5000
  band No.  band energies     occupation 
      1      -8.6910      2.00000
      2      -8.6910      2.00000
      3      -5.9033      2.00000
      4      -5.9032      2.00000
      5      -5.7432      2.00000
      6      -5.7432      2.00000
      7      -5.6055      2.00000
      8      -5.6054      2.00000
      9      -5.4742      2.00000
     10      -5.4742      2.00000
     11      -5.3102      2.00000
     12      -5.3102      2.00000
     13       3.7545      2.00000
     14       3.7546      2.00000
     15       5.8178      2.00000
     16       5.8179      2.00000
     17       7.3762      2.00000
     18       7.3763      2.00000
     19      13.4117      0.00000
     20      13.4118      0.00000
     21      16.7745      0.00000
     22      16.7746      0.00000
     23      18.6996      0.00000
     24      18.6997      0.00000
     25      22.3926      0.00000
     26      22.3928      0.00000
     27      25.0255      0.00000
     28      25.0256      0.00000
     29      28.5355      0.00000
     30      28.5356      0.00000
     31      31.6106      0.00000
     32      31.6107      0.00000

 k-point   250 :       0.1250   -0.1250    0.5000
  band No.  band energies     occupation 
      1      -8.6227      2.00000
      2      -8.6226      2.00000
      3      -5.8494      2.00000
      4      -5.8494      2.00000
      5      -5.7699      2.00000
      6      -5.7699      2.00000
      7      -5.6416      2.00000
      8      -5.6415      2.00000
      9      -5.4964      2.00000
     10      -5.4963      2.00000
     11      -5.2154      2.00000
     12      -5.2153      2.00000
     13       4.0479      2.00000
     14       4.0479      2.00000
     15       5.5075      2.00000
     16       5.5076      2.00000
     17       7.0627      2.00000
     18       7.0627      2.00000
     19      13.6998      0.00000
     20      13.6998      0.00000
     21      16.4450      0.00000
     22      16.4451      0.00000
     23      19.3003      0.00000
     24      19.3005      0.00000
     25      20.7285      0.00000
     26      20.7288      0.00000
     27      24.8824      0.00000
     28      24.8826      0.00000
     29      28.4781      0.00000
     30      28.4783      0.00000
     31      32.4510      0.00000
     32      32.4512      0.00000

 k-point   251 :       0.2500   -0.1250    0.5000
  band No.  band energies     occupation 
      1      -8.2723      2.00000
      2      -8.2722      2.00000
      3      -5.8705      2.00000
      4      -5.8705      2.00000
      5      -5.7776      2.00000
      6      -5.7776      2.00000
      7      -5.6477      2.00000
      8      -5.6476      2.00000
      9      -5.4727      2.00000
     10      -5.4727      2.00000
     11      -5.0173      2.00000
     12      -5.0172      2.00000
     13       2.9459      2.00000
     14       2.9460      2.00000
     15       5.4809      2.00000
     16       5.4810      2.00000
     17       6.9871      2.00000
     18       6.9872      2.00000
     19      14.2855      0.00000
     20      14.2856      0.00000
     21      15.5708      0.00000
     22      15.5709      0.00000
     23      19.2367      0.00000
     24      19.2368      0.00000
     25      20.5027      0.00000
     26      20.5029      0.00000
     27      25.8278      0.00000
     28      25.8279      0.00000
     29      27.9303      0.00000
     30      27.9306      0.00000
     31      31.7398      0.00000
     32      31.7402      0.00000

 k-point   252 :       0.3750   -0.1250    0.5000
  band No.  band energies     occupation 
      1      -7.8273      2.00000
      2      -7.8273      2.00000
      3      -5.8993      2.00000
      4      -5.8992      2.00000
      5      -5.8392      2.00000
      6      -5.8391      2.00000
      7      -5.5857      2.00000
      8      -5.5856      2.00000
      9      -5.4103      2.00000
     10      -5.4103      2.00000
     11      -4.7024      2.00000
     12      -4.7023      2.00000
     13       1.1038      2.00000
     14       1.1039      2.00000
     15       5.9783      2.00000
     16       5.9784      2.00000
     17       7.0069      2.00000
     18       7.0069      2.00000
     19      13.8918      0.00000
     20      13.8920      0.00000
     21      15.7450      0.00000
     22      15.7451      0.00000
     23      18.6581      0.00000
     24      18.6583      0.00000
     25      20.7917      0.00000
     26      20.7918      0.00000
     27      26.5502      0.00000
     28      26.5504      0.00000
     29      28.7441      0.00000
     30      28.7442      0.00000
     31      30.8788      0.00000
     32      30.8792      0.00000

 k-point   253 :       0.5000   -0.1250    0.5000
  band No.  band energies     occupation 
      1      -7.5549      2.00000
      2      -7.5549      2.00000
      3      -5.8971      2.00000
      4      -5.8971      2.00000
      5      -5.8337      2.00000
      6      -5.8336      2.00000
      7      -5.5723      2.00000
      8      -5.5723      2.00000
      9      -5.3756      2.00000
     10      -5.3756      2.00000
     11      -4.4743      2.00000
     12      -4.4743      2.00000
     13       0.0246      2.00000
     14       0.0247      2.00000
     15       6.1345      2.00000
     16       6.1346      2.00000
     17       6.9275      2.00000
     18       6.9275      2.00000
     19      13.6025      0.00000
     20      13.6027      0.00000
     21      16.4460      0.00000
     22      16.4461      0.00000
     23      18.4197      0.00000
     24      18.4198      0.00000
     25      21.2800      0.00000
     26      21.2801      0.00000
     27      25.7092      0.00000
     28      25.7094      0.00000
     29      29.1711      0.00000
     30      29.1713      0.00000
     31      31.7461      0.00000
     32      31.7463      0.00000

 k-point   254 :      -0.3750   -0.1250    0.5000
  band No.  band energies     occupation 
      1      -7.6093      2.00000
      2      -7.6093      2.00000
      3      -5.8899      2.00000
      4      -5.8899      2.00000
      5      -5.7682      2.00000
      6      -5.7681      2.00000
      7      -5.5770      2.00000
      8      -5.5770      2.00000
      9      -5.4359      2.00000
     10      -5.4359      2.00000
     11      -4.7440      2.00000
     12      -4.7440      2.00000
     13       0.4838      2.00000
     14       0.4839      2.00000
     15       5.8232      2.00000
     16       5.8233      2.00000
     17       6.8219      2.00000
     18       6.8219      2.00000
     19      13.9993      0.00000
     20      13.9995      0.00000
     21      16.8712      0.00000
     22      16.8713      0.00000
     23      18.3730      0.00000
     24      18.3731      0.00000
     25      22.3655      0.00000
     26      22.3655      0.00000
     27      25.0302      0.00000
     28      25.0304      0.00000
     29      29.1499      0.00000
     30      29.1501      0.00000
     31      30.9526      0.00000
     32      30.9528      0.00000

 k-point   255 :      -0.2500   -0.1250    0.5000
  band No.  band energies     occupation 
      1      -7.9810      2.00000
      2      -7.9810      2.00000
      3      -5.8768      2.00000
      4      -5.8767      2.00000
      5      -5.7453      2.00000
      6      -5.7453      2.00000
      7      -5.5851      2.00000
      8      -5.5851      2.00000
      9      -5.5289      2.00000
     10      -5.5289      2.00000
     11      -5.0830      2.00000
     12      -5.0830      2.00000
     13       1.8837      2.00000
     14       1.8838      2.00000
     15       5.7539      2.00000
     16       5.7540      2.00000
     17       6.4912      2.00000
     18       6.4913      2.00000
     19      14.8446      0.00000
     20      14.8448      0.00000
     21      16.6021      0.00000
     22      16.6022      0.00000
     23      18.0902      0.00000
     24      18.0903      0.00000
     25      23.7728      0.00000
     26      23.7729      0.00000
     27      25.4766      0.00000
     28      25.4766      0.00000
     29      28.4410      0.00000
     30      28.4411      0.00000
     31      29.8351      0.00000
     32      29.8352      0.00000

 k-point   256 :      -0.1250   -0.1250    0.5000
  band No.  band energies     occupation 
      1      -8.4372      2.00000
      2      -8.4372      2.00000
      3      -5.9004      2.00000
      4      -5.9004      2.00000
      5      -5.7531      2.00000
      6      -5.7531      2.00000
      7      -5.5926      2.00000
      8      -5.5926      2.00000
      9      -5.5021      2.00000
     10      -5.5021      2.00000
     11      -5.2557      2.00000
     12      -5.2557      2.00000
     13       3.0986      2.00000
     14       3.0987      2.00000
     15       5.9880      2.00000
     16       5.9880      2.00000
     17       6.6078      2.00000
     18       6.6079      2.00000
     19      14.4790      0.00000
     20      14.4790      0.00000
     21      16.5607      0.00000
     22      16.5608      0.00000
     23      18.1153      0.00000
     24      18.1154      0.00000
     25      24.1308      0.00000
     26      24.1309      0.00000
     27      25.5491      0.00000
     28      25.5493      0.00000
     29      27.9253      0.00000
     30      27.9253      0.00000
     31      30.8114      0.00000
     32      30.8115      0.00000

 k-point   257 :       0.0000   -0.0000   -0.3333
  band No.  band energies     occupation 
      1      -9.3115      2.00000
      2      -8.4907      2.00000
      3      -5.9337      2.00000
      4      -5.8722      2.00000
      5      -5.8603      2.00000
      6      -5.6433      2.00000
      7      -5.5677      2.00000
      8      -5.5638      2.00000
      9      -5.5408      2.00000
     10      -5.4189      2.00000
     11      -5.4151      2.00000
     12      -5.0072      2.00000
     13       2.3538      2.00000
     14       5.5464      2.00000
     15       5.8187      2.00000
     16       6.5465      2.00000
     17       7.2999      2.00000
     18       7.9613      2.00000
     19      12.0098      0.00000
     20      12.5789      0.00000
     21      17.5869      0.00000
     22      18.0387      0.00000
     23      18.0640      0.00000
     24      19.9463      0.00000
     25      22.0398      0.00000
     26      22.2497      0.00000
     27      23.5716      0.00000
     28      26.1509      0.00000
     29      28.5474      0.00000
     30      28.8930      0.00000
     31      29.1422      0.00000
     32      31.4574      0.00000

 k-point   258 :       0.1250    0.0000   -0.3333
  band No.  band energies     occupation 
      1      -9.1072      2.00000
      2      -8.3464      2.00000
      3      -5.9338      2.00000
      4      -5.8771      2.00000
      5      -5.8321      2.00000
      6      -5.6507      2.00000
      7      -5.6027      2.00000
      8      -5.5760      2.00000
      9      -5.5311      2.00000
     10      -5.4514      2.00000
     11      -5.4158      2.00000
     12      -4.8870      2.00000
     13       2.3374      2.00000
     14       4.8846      2.00000
     15       4.9840      2.00000
     16       6.7308      2.00000
     17       7.0736      2.00000
     18       7.7537      2.00000
     19      12.9155      0.00000
     20      13.1265      0.00000
     21      17.2274      0.00000
     22      17.5434      0.00000
     23      18.3027      0.00000
     24      19.3385      0.00000
     25      22.3597      0.00000
     26      22.5963      0.00000
     27      23.9462      0.00000
     28      25.9539      0.00000
     29      26.7431      0.00000
     30      29.9546      0.00000
     31      30.5743      0.00000
     32      31.9508      0.00000

 k-point   259 :       0.2500    0.0000   -0.3333
  band No.  band energies     occupation 
      1      -8.5579      2.00000
      2      -7.9869      2.00000
      3      -5.9452      2.00000
      4      -5.8881      2.00000
      5      -5.7985      2.00000
      6      -5.6977      2.00000
      7      -5.6184      2.00000
      8      -5.5809      2.00000
      9      -5.5041      2.00000
     10      -5.4326      2.00000
     11      -5.3941      2.00000
     12      -4.6576      2.00000
     13       1.6259      2.00000
     14       3.0574      2.00000
     15       4.2901      2.00000
     16       6.8257      2.00000
     17       7.1403      2.00000
     18       7.7394      2.00000
     19      13.4857      0.00000
     20      14.4310      0.00000
     21      16.1570      0.00000
     22      17.1282      0.00000
     23      18.3669      0.00000
     24      18.9025      0.00000
     25      22.2305      0.00000
     26      22.7525      0.00000
     27      24.4909      0.00000
     28      26.6043      0.00000
     29      27.0971      0.00000
     30      28.9959      0.00000
     31      30.4444      0.00000
     32      32.1889      0.00000

 k-point   260 :       0.3750   -0.0000   -0.3333
  band No.  band energies     occupation 
      1      -7.9099      2.00000
      2      -7.6290      2.00000
      3      -5.9345      2.00000
      4      -5.8851      2.00000
      5      -5.8062      2.00000
      6      -5.7721      2.00000
      7      -5.5816      2.00000
      8      -5.5442      2.00000
      9      -5.4262      2.00000
     10      -5.4152      2.00000
     11      -5.2065      2.00000
     12      -4.4912      2.00000
     13       0.2689      2.00000
     14       1.2020      2.00000
     15       4.8096      2.00000
     16       6.5814      2.00000
     17       7.3426      2.00000
     18       7.8778      2.00000
     19      13.2516      0.00000
     20      14.3892      0.00000
     21      16.4218      0.00000
     22      17.6149      0.00000
     23      17.8875      0.00000
     24      18.5483      0.00000
     25      22.1472      0.00000
     26      22.4573      0.00000
     27      23.9582      0.00000
     28      26.4370      0.00000
     29      28.4715      0.00000
     30      29.4671      0.00000
     31      30.5336      0.00000
     32      31.3179      0.00000

 k-point   261 :       0.5000   -0.0000   -0.3333
  band No.  band energies     occupation 
      1      -7.5980      2.00000
      2      -7.5074      2.00000
      3      -5.9263      2.00000
      4      -5.8851      2.00000
      5      -5.7900      2.00000
      6      -5.7845      2.00000
      7      -5.5705      2.00000
      8      -5.5444      2.00000
      9      -5.4061      2.00000
     10      -5.3819      2.00000
     11      -4.7894      2.00000
     12      -4.6839      2.00000
     13      -0.1480      2.00000
     14       0.1903      2.00000
     15       5.4898      2.00000
     16       6.0679      2.00000
     17       7.4656      2.00000
     18       7.9239      2.00000
     19      13.3719      0.00000
     20      13.6611      0.00000
     21      17.3218      0.00000
     22      17.3500      0.00000
     23      18.1009      0.00000
     24      18.2991      0.00000
     25      21.9201      0.00000
     26      22.4056      0.00000
     27      23.9657      0.00000
     28      25.0341      0.00000
     29      28.9622      0.00000
     30      30.3979      0.00000
     31      30.9707      0.00000
     32      31.7423      0.00000

 k-point   262 :      -0.3750   -0.0000   -0.3333
  band No.  band energies     occupation 
      1      -7.9099      2.00000
      2      -7.6290      2.00000
      3      -5.9345      2.00000
      4      -5.8851      2.00000
      5      -5.8062      2.00000
      6      -5.7721      2.00000
      7      -5.5816      2.00000
      8      -5.5442      2.00000
      9      -5.4262      2.00000
     10      -5.4152      2.00000
     11      -5.2065      2.00000
     12      -4.4912      2.00000
     13       0.2689      2.00000
     14       1.2021      2.00000
     15       4.8096      2.00000
     16       6.5813      2.00000
     17       7.3426      2.00000
     18       7.8778      2.00000
     19      13.2515      0.00000
     20      14.3894      0.00000
     21      16.4219      0.00000
     22      17.6148      0.00000
     23      17.8874      0.00000
     24      18.5483      0.00000
     25      22.1473      0.00000
     26      22.4573      0.00000
     27      23.9583      0.00000
     28      26.4369      0.00000
     29      28.4716      0.00000
     30      29.4672      0.00000
     31      30.5335      0.00000
     32      31.3176      0.00000

 k-point   263 :      -0.2500    0.0000   -0.3333
  band No.  band energies     occupation 
      1      -8.5579      2.00000
      2      -7.9870      2.00000
      3      -5.9453      2.00000
      4      -5.8881      2.00000
      5      -5.7985      2.00000
      6      -5.6977      2.00000
      7      -5.6184      2.00000
      8      -5.5808      2.00000
      9      -5.5041      2.00000
     10      -5.4326      2.00000
     11      -5.3941      2.00000
     12      -4.6576      2.00000
     13       1.6259      2.00000
     14       3.0574      2.00000
     15       4.2901      2.00000
     16       6.8257      2.00000
     17       7.1403      2.00000
     18       7.7394      2.00000
     19      13.4856      0.00000
     20      14.4310      0.00000
     21      16.1572      0.00000
     22      17.1281      0.00000
     23      18.3668      0.00000
     24      18.9023      0.00000
     25      22.2305      0.00000
     26      22.7526      0.00000
     27      24.4910      0.00000
     28      26.6043      0.00000
     29      27.0971      0.00000
     30      28.9959      0.00000
     31      30.4443      0.00000
     32      32.1886      0.00000

 k-point   264 :      -0.1250    0.0000   -0.3333
  band No.  band energies     occupation 
      1      -9.1072      2.00000
      2      -8.3464      2.00000
      3      -5.9338      2.00000
      4      -5.8771      2.00000
      5      -5.8321      2.00000
      6      -5.6507      2.00000
      7      -5.6027      2.00000
      8      -5.5760      2.00000
      9      -5.5311      2.00000
     10      -5.4514      2.00000
     11      -5.4158      2.00000
     12      -4.8870      2.00000
     13       2.3374      2.00000
     14       4.8846      2.00000
     15       4.9840      2.00000
     16       6.7308      2.00000
     17       7.0736      2.00000
     18       7.7537      2.00000
     19      12.9154      0.00000
     20      13.1265      0.00000
     21      17.2274      0.00000
     22      17.5434      0.00000
     23      18.3027      0.00000
     24      19.3385      0.00000
     25      22.3598      0.00000
     26      22.5962      0.00000
     27      23.9461      0.00000
     28      25.9540      0.00000
     29      26.7431      0.00000
     30      29.9546      0.00000
     31      30.5743      0.00000
     32      31.9508      0.00000

 k-point   265 :      -0.0000    0.1250   -0.3333
  band No.  band energies     occupation 
      1      -9.1072      2.00000
      2      -8.3464      2.00000
      3      -5.9338      2.00000
      4      -5.8771      2.00000
      5      -5.8321      2.00000
      6      -5.6507      2.00000
      7      -5.6027      2.00000
      8      -5.5760      2.00000
      9      -5.5311      2.00000
     10      -5.4514      2.00000
     11      -5.4158      2.00000
     12      -4.8870      2.00000
     13       2.3374      2.00000
     14       4.8846      2.00000
     15       4.9840      2.00000
     16       6.7308      2.00000
     17       7.0736      2.00000
     18       7.7537      2.00000
     19      12.9154      0.00000
     20      13.1265      0.00000
     21      17.2274      0.00000
     22      17.5434      0.00000
     23      18.3027      0.00000
     24      19.3385      0.00000
     25      22.3598      0.00000
     26      22.5962      0.00000
     27      23.9461      0.00000
     28      25.9540      0.00000
     29      26.7431      0.00000
     30      29.9546      0.00000
     31      30.5743      0.00000
     32      31.9508      0.00000

 k-point   266 :       0.1250    0.1250   -0.3333
  band No.  band energies     occupation 
      1      -8.8163      2.00000
      2      -8.1426      2.00000
      3      -5.9249      2.00000
      4      -5.8694      2.00000
      5      -5.8310      2.00000
      6      -5.6469      2.00000
      7      -5.5976      2.00000
      8      -5.5954      2.00000
      9      -5.5130      2.00000
     10      -5.4845      2.00000
     11      -5.4414      2.00000
     12      -4.7952      2.00000
     13       2.1218      2.00000
     14       4.0247      2.00000
     15       4.7419      2.00000
     16       6.0877      2.00000
     17       7.0974      2.00000
     18       7.0988      2.00000
     19      13.8023      0.00000
     20      14.2873      0.00000
     21      17.2579      0.00000
     22      17.3173      0.00000
     23      17.9929      0.00000
     24      18.4036      0.00000
     25      23.7169      0.00000
     26      23.9886      0.00000
     27      25.2893      0.00000
     28      25.3843      0.00000
     29      27.1789      0.00000
     30      29.3258      0.00000
     31      29.9850      0.00000
     32      31.1175      0.00000

 k-point   267 :       0.2500    0.1250   -0.3333
  band No.  band energies     occupation 
      1      -8.2556      2.00000
      2      -7.8053      2.00000
      3      -5.8866      2.00000
      4      -5.8499      2.00000
      5      -5.7753      2.00000
      6      -5.6918      2.00000
      7      -5.6155      2.00000
      8      -5.5789      2.00000
      9      -5.5585      2.00000
     10      -5.4832      2.00000
     11      -5.3512      2.00000
     12      -4.5756      2.00000
     13       1.3738      2.00000
     14       2.6101      2.00000
     15       4.5451      2.00000
     16       5.7045      2.00000
     17       6.5159      2.00000
     18       7.1127      2.00000
     19      14.1656      0.00000
     20      15.7375      0.00000
     21      16.3001      0.00000
     22      17.4637      0.00000
     23      17.8113      0.00000
     24      18.4726      0.00000
     25      23.1655      0.00000
     26      23.8263      0.00000
     27      24.0468      0.00000
     28      27.3211      0.00000
     29      28.1254      0.00000
     30      28.7148      0.00000
     31      29.0504      0.00000
     32      31.1116      0.00000

 k-point   268 :       0.3750    0.1250   -0.3333
  band No.  band energies     occupation 
      1      -7.7396      2.00000
      2      -7.5639      2.00000
      3      -5.9005      2.00000
      4      -5.8415      2.00000
      5      -5.7726      2.00000
      6      -5.7457      2.00000
      7      -5.6351      2.00000
      8      -5.5299      2.00000
      9      -5.4735      2.00000
     10      -5.4147      2.00000
     11      -5.0192      2.00000
     12      -4.3580      2.00000
     13       0.3005      2.00000
     14       1.0480      2.00000
     15       4.8902      2.00000
     16       6.1261      2.00000
     17       6.3745      2.00000
     18       6.9469      2.00000
     19      13.8834      0.00000
     20      14.9749      0.00000
     21      16.4806      0.00000
     22      17.4362      0.00000
     23      17.9851      0.00000
     24      18.7605      0.00000
     25      21.2949      0.00000
     26      23.0351      0.00000
     27      24.2026      0.00000
     28      26.5122      0.00000
     29      28.4983      0.00000
     30      29.7425      0.00000
     31      30.7196      0.00000
     32      31.2557      0.00000

 k-point   269 :       0.5000    0.1250   -0.3333
  band No.  band energies     occupation 
      1      -7.6381      2.00000
      2      -7.5490      2.00000
      3      -5.9087      2.00000
      4      -5.8540      2.00000
      5      -5.8301      2.00000
      6      -5.8064      2.00000
      7      -5.6263      2.00000
      8      -5.5188      2.00000
      9      -5.4272      2.00000
     10      -5.3674      2.00000
     11      -4.5696      2.00000
     12      -4.3421      2.00000
     13       0.0483      2.00000
     14       0.4528      2.00000
     15       5.3959      2.00000
     16       5.8778      2.00000
     17       6.7659      2.00000
     18       7.0869      2.00000
     19      13.8973      0.00000
     20      14.0984      0.00000
     21      16.1338      0.00000
     22      16.8444      0.00000
     23      18.1012      0.00000
     24      18.6753      0.00000
     25      20.5529      0.00000
     26      22.3016      0.00000
     27      25.0894      0.00000
     28      26.0858      0.00000
     29      28.8434      0.00000
     30      29.8561      0.00000
     31      31.3662      0.00000
     32      32.0176      0.00000

 k-point   270 :      -0.3750    0.1250   -0.3333
  band No.  band energies     occupation 
      1      -8.0253      2.00000
      2      -7.7208      2.00000
      3      -5.9177      2.00000
      4      -5.8693      2.00000
      5      -5.8423      2.00000
      6      -5.7844      2.00000
      7      -5.6358      2.00000
      8      -5.5348      2.00000
      9      -5.4482      2.00000
     10      -5.4001      2.00000
     11      -5.0023      2.00000
     12      -4.2138      2.00000
     13       0.7271      2.00000
     14       1.7539      2.00000
     15       4.6635      2.00000
     16       6.3921      2.00000
     17       6.9511      2.00000
     18       7.2374      2.00000
     19      13.7549      0.00000
     20      14.4967      0.00000
     21      15.1857      0.00000
     22      16.3490      0.00000
     23      18.3152      0.00000
     24      18.7930      0.00000
     25      21.0175      0.00000
     26      21.2085      0.00000
     27      25.8782      0.00000
     28      26.4380      0.00000
     29      27.9176      0.00000
     30      29.5366      0.00000
     31      31.2406      0.00000
     32      31.7645      0.00000

 k-point   271 :      -0.2500    0.1250   -0.3333
  band No.  band energies     occupation 
      1      -8.5958      2.00000
      2      -8.0391      2.00000
      3      -5.9029      2.00000
      4      -5.8415      2.00000
      5      -5.7885      2.00000
      6      -5.7243      2.00000
      7      -5.6704      2.00000
      8      -5.6060      2.00000
      9      -5.5310      2.00000
     10      -5.4229      2.00000
     11      -5.2767      2.00000
     12      -4.5002      2.00000
     13       2.1817      2.00000
     14       3.7226      2.00000
     15       4.2447      2.00000
     16       6.3720      2.00000
     17       6.6376      2.00000
     18       7.3692      2.00000
     19      13.7470      0.00000
     20      14.2457      0.00000
     21      15.6331      0.00000
     22      16.5822      0.00000
     23      18.8957      0.00000
     24      19.3791      0.00000
     25      20.2746      0.00000
     26      21.0191      0.00000
     27      24.9651      0.00000
     28      26.6220      0.00000
     29      27.0729      0.00000
     30      28.1729      0.00000
     31      31.5656      0.00000
     32      32.4117      0.00000

 k-point   272 :      -0.1250    0.1250   -0.3333
  band No.  band energies     occupation 
      1      -9.0204      2.00000
      2      -8.3007      2.00000
      3      -5.8792      2.00000
      4      -5.8551      2.00000
      5      -5.8133      2.00000
      6      -5.6985      2.00000
      7      -5.6292      2.00000
      8      -5.6008      2.00000
      9      -5.5744      2.00000
     10      -5.4204      2.00000
     11      -5.3828      2.00000
     12      -4.7733      2.00000
     13       2.5200      2.00000
     14       4.9789      2.00000
     15       5.3614      2.00000
     16       6.0784      2.00000
     17       6.5230      2.00000
     18       7.5892      2.00000
     19      13.1735      0.00000
     20      13.4793      0.00000
     21      16.8444      0.00000
     22      17.3885      0.00000
     23      18.7433      0.00000
     24      19.8750      0.00000
     25      20.5257      0.00000
     26      20.9938      0.00000
     27      23.6325      0.00000
     28      26.4359      0.00000
     29      26.8726      0.00000
     30      29.4859      0.00000
     31      30.5399      0.00000
     32      32.8402      0.00000

 k-point   273 :      -0.0000    0.2500   -0.3333
  band No.  band energies     occupation 
      1      -8.5579      2.00000
      2      -7.9870      2.00000
      3      -5.9453      2.00000
      4      -5.8881      2.00000
      5      -5.7985      2.00000
      6      -5.6977      2.00000
      7      -5.6184      2.00000
      8      -5.5808      2.00000
      9      -5.5041      2.00000
     10      -5.4326      2.00000
     11      -5.3941      2.00000
     12      -4.6576      2.00000
     13       1.6259      2.00000
     14       3.0574      2.00000
     15       4.2901      2.00000
     16       6.8257      2.00000
     17       7.1403      2.00000
     18       7.7394      2.00000
     19      13.4856      0.00000
     20      14.4310      0.00000
     21      16.1572      0.00000
     22      17.1281      0.00000
     23      18.3668      0.00000
     24      18.9023      0.00000
     25      22.2305      0.00000
     26      22.7526      0.00000
     27      24.4910      0.00000
     28      26.6043      0.00000
     29      27.0971      0.00000
     30      28.9959      0.00000
     31      30.4443      0.00000
     32      32.1886      0.00000

 k-point   274 :       0.1250    0.2500   -0.3333
  band No.  band energies     occupation 
      1      -8.2556      2.00000
      2      -7.8053      2.00000
      3      -5.8866      2.00000
      4      -5.8499      2.00000
      5      -5.7753      2.00000
      6      -5.6918      2.00000
      7      -5.6155      2.00000
      8      -5.5789      2.00000
      9      -5.5585      2.00000
     10      -5.4832      2.00000
     11      -5.3512      2.00000
     12      -4.5756      2.00000
     13       1.3737      2.00000
     14       2.6102      2.00000
     15       4.5452      2.00000
     16       5.7045      2.00000
     17       6.5158      2.00000
     18       7.1127      2.00000
     19      14.1655      0.00000
     20      15.7375      0.00000
     21      16.3002      0.00000
     22      17.4637      0.00000
     23      17.8114      0.00000
     24      18.4725      0.00000
     25      23.1655      0.00000
     26      23.8263      0.00000
     27      24.0468      0.00000
     28      27.3211      0.00000
     29      28.1255      0.00000
     30      28.7148      0.00000
     31      29.0505      0.00000
     32      31.1114      0.00000

 k-point   275 :       0.2500    0.2500   -0.3333
  band No.  band energies     occupation 
      1      -7.8628      2.00000
      2      -7.6269      2.00000
      3      -5.8647      2.00000
      4      -5.8249      2.00000
      5      -5.7188      2.00000
      6      -5.6547      2.00000
      7      -5.6271      2.00000
      8      -5.6258      2.00000
      9      -5.5265      2.00000
     10      -5.5067      2.00000
     11      -5.0625      2.00000
     12      -4.2328      2.00000
     13       1.2519      2.00000
     14       2.1287      2.00000
     15       3.8413      2.00000
     16       5.1469      2.00000
     17       5.4452      2.00000
     18       6.8773      2.00000
     19      15.0293      0.00000
     20      15.7256      0.00000
     21      16.3610      0.00000
     22      17.1458      0.00000
     23      17.2772      0.00000
     24      18.2725      0.00000
     25      22.7851      0.00000
     26      23.3646      0.00000
     27      23.5542      0.00000
     28      27.5869      0.00000
     29      28.5090      0.00000
     30      28.9044      0.00000
     31      31.0369      0.00000
     32      32.2537      0.00000

 k-point   276 :       0.3750    0.2500   -0.3333
  band No.  band energies     occupation 
      1      -7.6462      2.00000
      2      -7.5911      2.00000
      3      -5.9161      2.00000
      4      -5.8592      2.00000
      5      -5.7829      2.00000
      6      -5.6675      2.00000
      7      -5.6035      2.00000
      8      -5.5588      2.00000
      9      -5.4553      2.00000
     10      -5.4122      2.00000
     11      -4.3581      2.00000
     12      -3.8418      2.00000
     13       0.8177      2.00000
     14       1.2467      2.00000
     15       3.4873      2.00000
     16       4.8080      2.00000
     17       6.0961      2.00000
     18       6.4646      2.00000
     19      14.4475      0.00000
     20      14.7837      0.00000
     21      15.6713      0.00000
     22      16.6107      0.00000
     23      17.1419      0.00000
     24      18.5655      0.00000
     25      21.8791      0.00000
     26      22.9685      0.00000
     27      24.3389      0.00000
     28      27.0461      0.00000
     29      28.1065      0.00000
     30      29.5998      0.00000
     31      32.5128      0.00000
     32      33.0181      0.00000

 k-point   277 :       0.5000    0.2500   -0.3333
  band No.  band energies     occupation 
      1      -7.7432      2.00000
      2      -7.6481      2.00000
      3      -5.9362      2.00000
      4      -5.8943      2.00000
      5      -5.7777      2.00000
      6      -5.6783      2.00000
      7      -5.6227      2.00000
      8      -5.5572      2.00000
      9      -5.4003      2.00000
     10      -5.3577      2.00000
     11      -4.0452      2.00000
     12      -3.6271      2.00000
     13       0.6735      2.00000
     14       1.1628      2.00000
     15       4.1571      2.00000
     16       4.9572      2.00000
     17       5.7926      2.00000
     18       6.6900      2.00000
     19      12.9929      0.00000
     20      13.7419      0.00000
     21      15.2063      0.00000
     22      16.1853      0.00000
     23      18.2277      0.00000
     24      18.9622      0.00000
     25      21.1692      0.00000
     26      21.9209      0.00000
     27      24.6412      0.00000
     28      26.7405      0.00000
     29      28.5048      0.00000
     30      30.1661      0.00000
     31      31.5824      0.00000
     32      33.1573      0.00000

 k-point   278 :      -0.3750    0.2500   -0.3333
  band No.  band energies     occupation 
      1      -8.0345      2.00000
      2      -7.7826      2.00000
      3      -5.9039      2.00000
      4      -5.8706      2.00000
      5      -5.7771      2.00000
      6      -5.6800      2.00000
      7      -5.6525      2.00000
      8      -5.5735      2.00000
      9      -5.4286      2.00000
     10      -5.3844      2.00000
     11      -4.6317      2.00000
     12      -3.7227      2.00000
     13       1.6297      2.00000
     14       2.5345      2.00000
     15       4.1764      2.00000
     16       5.0379      2.00000
     17       5.7294      2.00000
     18       6.7510      2.00000
     19      12.2866      0.00000
     20      13.3458      0.00000
     21      15.4379      0.00000
     22      16.3590      0.00000
     23      18.5831      0.00000
     24      19.7028      0.00000
     25      20.6691      0.00000
     26      21.0202      0.00000
     27      24.5745      0.00000
     28      26.5898      0.00000
     29      28.0910      0.00000
     30      29.0278      0.00000
     31      30.8884      0.00000
     32      33.1747      0.00000

 k-point   279 :      -0.2500    0.2500   -0.3333
  band No.  band energies     occupation 
      1      -8.3759      2.00000
      2      -7.9456      2.00000
      3      -5.8445      2.00000
      4      -5.8154      2.00000
      5      -5.8059      2.00000
      6      -5.6786      2.00000
      7      -5.6750      2.00000
      8      -5.6390      2.00000
      9      -5.5175      2.00000
     10      -5.4155      2.00000
     11      -5.0706      2.00000
     12      -4.1611      2.00000
     13       2.7695      2.00000
     14       3.7901      2.00000
     15       4.1401      2.00000
     16       5.0670      2.00000
     17       5.7030      2.00000
     18       6.9985      2.00000
     19      12.9147      0.00000
     20      13.8696      0.00000
     21      15.5516      0.00000
     22      16.6285      0.00000
     23      18.7518      0.00000
     24      19.9133      0.00000
     25      20.1636      0.00000
     26      20.5552      0.00000
     27      25.3927      0.00000
     28      25.5979      0.00000
     29      27.4941      0.00000
     30      27.5184      0.00000
     31      31.4981      0.00000
     32      33.3269      0.00000

 k-point   280 :      -0.1250    0.2500   -0.3333
  band No.  band energies     occupation 
      1      -8.5958      2.00000
      2      -8.0391      2.00000
      3      -5.9029      2.00000
      4      -5.8415      2.00000
      5      -5.7885      2.00000
      6      -5.7243      2.00000
      7      -5.6704      2.00000
      8      -5.6060      2.00000
      9      -5.5310      2.00000
     10      -5.4229      2.00000
     11      -5.2767      2.00000
     12      -4.5002      2.00000
     13       2.1817      2.00000
     14       3.7226      2.00000
     15       4.2447      2.00000
     16       6.3720      2.00000
     17       6.6376      2.00000
     18       7.3692      2.00000
     19      13.7470      0.00000
     20      14.2457      0.00000
     21      15.6331      0.00000
     22      16.5822      0.00000
     23      18.8957      0.00000
     24      19.3791      0.00000
     25      20.2746      0.00000
     26      21.0191      0.00000
     27      24.9651      0.00000
     28      26.6220      0.00000
     29      27.0729      0.00000
     30      28.1729      0.00000
     31      31.5656      0.00000
     32      32.4117      0.00000

 k-point   281 :       0.0000    0.3750   -0.3333
  band No.  band energies     occupation 
      1      -7.9099      2.00000
      2      -7.6290      2.00000
      3      -5.9345      2.00000
      4      -5.8851      2.00000
      5      -5.8062      2.00000
      6      -5.7721      2.00000
      7      -5.5816      2.00000
      8      -5.5442      2.00000
      9      -5.4262      2.00000
     10      -5.4152      2.00000
     11      -5.2065      2.00000
     12      -4.4912      2.00000
     13       0.2689      2.00000
     14       1.2021      2.00000
     15       4.8096      2.00000
     16       6.5813      2.00000
     17       7.3426      2.00000
     18       7.8778      2.00000
     19      13.2515      0.00000
     20      14.3894      0.00000
     21      16.4219      0.00000
     22      17.6148      0.00000
     23      17.8874      0.00000
     24      18.5483      0.00000
     25      22.1473      0.00000
     26      22.4573      0.00000
     27      23.9583      0.00000
     28      26.4369      0.00000
     29      28.4716      0.00000
     30      29.4672      0.00000
     31      30.5335      0.00000
     32      31.3176      0.00000

 k-point   282 :       0.1250    0.3750   -0.3333
  band No.  band energies     occupation 
      1      -7.7396      2.00000
      2      -7.5639      2.00000
      3      -5.9005      2.00000
      4      -5.8415      2.00000
      5      -5.7727      2.00000
      6      -5.7457      2.00000
      7      -5.6351      2.00000
      8      -5.5299      2.00000
      9      -5.4735      2.00000
     10      -5.4147      2.00000
     11      -5.0192      2.00000
     12      -4.3580      2.00000
     13       0.3004      2.00000
     14       1.0480      2.00000
     15       4.8903      2.00000
     16       6.1261      2.00000
     17       6.3744      2.00000
     18       6.9470      2.00000
     19      13.8832      0.00000
     20      14.9751      0.00000
     21      16.4807      0.00000
     22      17.4361      0.00000
     23      17.9851      0.00000
     24      18.7604      0.00000
     25      21.2949      0.00000
     26      23.0351      0.00000
     27      24.2028      0.00000
     28      26.5123      0.00000
     29      28.4984      0.00000
     30      29.7424      0.00000
     31      30.7197      0.00000
     32      31.2555      0.00000

 k-point   283 :       0.2500    0.3750   -0.3333
  band No.  band energies     occupation 
      1      -7.6462      2.00000
      2      -7.5911      2.00000
      3      -5.9161      2.00000
      4      -5.8592      2.00000
      5      -5.7829      2.00000
      6      -5.6675      2.00000
      7      -5.6035      2.00000
      8      -5.5588      2.00000
      9      -5.4553      2.00000
     10      -5.4122      2.00000
     11      -4.3581      2.00000
     12      -3.8418      2.00000
     13       0.8176      2.00000
     14       1.2467      2.00000
     15       3.4873      2.00000
     16       4.8080      2.00000
     17       6.0961      2.00000
     18       6.4646      2.00000
     19      14.4474      0.00000
     20      14.7837      0.00000
     21      15.6714      0.00000
     22      16.6107      0.00000
     23      17.1420      0.00000
     24      18.5654      0.00000
     25      21.8790      0.00000
     26      22.9686      0.00000
     27      24.3391      0.00000
     28      27.0461      0.00000
     29      28.1064      0.00000
     30      29.5998      0.00000
     31      32.5128      0.00000
     32      33.0181      0.00000

 k-point   284 :       0.3750    0.3750   -0.3333
  band No.  band energies     occupation 
      1      -7.7073      2.00000
      2      -7.6737      2.00000
      3      -5.9346      2.00000
      4      -5.8477      2.00000
      5      -5.8466      2.00000
      6      -5.6057      2.00000
      7      -5.5961      2.00000
      8      -5.5174      2.00000
      9      -5.3785      2.00000
     10      -5.3631      2.00000
     11      -3.4601      2.00000
     12      -3.3161      2.00000
     13       1.4854      2.00000
     14       1.7831      2.00000
     15       2.0335      2.00000
     16       3.6000      2.00000
     17       5.9607      2.00000
     18       6.5112      2.00000
     19      12.9008      0.00000
     20      13.0112      0.00000
     21      15.6153      0.00000
     22      16.5754      0.00000
     23      17.2282      0.00000
     24      18.5798      0.00000
     25      22.0572      0.00000
     26      22.4357      0.00000
     27      24.6529      0.00000
     28      27.4436      0.00000
     29      27.6944      0.00000
     30      30.2884      0.00000
     31      32.2248      0.00000
     32      33.2434      0.00000

 k-point   285 :       0.5000    0.3750   -0.3333
  band No.  band energies     occupation 
      1      -7.8470      2.00000
      2      -7.7462      2.00000
      3      -5.9295      2.00000
      4      -5.8679      2.00000
      5      -5.8062      2.00000
      6      -5.6302      2.00000
      7      -5.5886      2.00000
      8      -5.5348      2.00000
      9      -5.3139      2.00000
     10      -5.3054      2.00000
     11      -3.4001      2.00000
     12      -2.8969      2.00000
     13       1.5952      2.00000
     14       1.7573      2.00000
     15       3.0237      2.00000
     16       3.6389      2.00000
     17       5.2763      2.00000
     18       6.3744      2.00000
     19      11.3094      0.00000
     20      12.0366      0.00000
     21      15.5791      0.00000
     22      16.6785      0.00000
     23      18.1049      0.00000
     24      19.2635      0.00000
     25      20.5639      0.00000
     26      21.7300      0.00000
     27      24.8091      0.00000
     28      27.3631      0.00000
     29      28.5464      0.00000
     30      30.3006      0.00000
     31      31.5405      0.00000
     32      33.2478      0.00000

 k-point   286 :      -0.3750    0.3750   -0.3333
  band No.  band energies     occupation 
      1      -7.9644      2.00000
      2      -7.7913      2.00000
      3      -5.9131      2.00000
      4      -5.8251      2.00000
      5      -5.8243      2.00000
      6      -5.6506      2.00000
      7      -5.5856      2.00000
      8      -5.5657      2.00000
      9      -5.3533      2.00000
     10      -5.3271      2.00000
     11      -4.0434      2.00000
     12      -3.1557      2.00000
     13       2.3954      2.00000
     14       2.7516      2.00000
     15       2.8457      2.00000
     16       4.1634      2.00000
     17       5.2509      2.00000
     18       6.2284      2.00000
     19      10.9970      0.00000
     20      12.1392      0.00000
     21      15.9660      0.00000
     22      16.7804      0.00000
     23      17.8590      0.00000
     24      20.2140      0.00000
     25      20.6099      0.00000
     26      20.9906      0.00000
     27      24.2953      0.00000
     28      27.5704      0.00000
     29      27.8436      0.00000
     30      29.4606      0.00000
     31      30.9479      0.00000
     32      33.3491      0.00000

 k-point   287 :      -0.2500    0.3750   -0.3333
  band No.  band energies     occupation 
      1      -8.0345      2.00000
      2      -7.7826      2.00000
      3      -5.9039      2.00000
      4      -5.8706      2.00000
      5      -5.7771      2.00000
      6      -5.6800      2.00000
      7      -5.6525      2.00000
      8      -5.5735      2.00000
      9      -5.4286      2.00000
     10      -5.3844      2.00000
     11      -4.6317      2.00000
     12      -3.7227      2.00000
     13       1.6297      2.00000
     14       2.5345      2.00000
     15       4.1764      2.00000
     16       5.0379      2.00000
     17       5.7294      2.00000
     18       6.7510      2.00000
     19      12.2866      0.00000
     20      13.3458      0.00000
     21      15.4379      0.00000
     22      16.3590      0.00000
     23      18.5831      0.00000
     24      19.7028      0.00000
     25      20.6691      0.00000
     26      21.0202      0.00000
     27      24.5745      0.00000
     28      26.5898      0.00000
     29      28.0910      0.00000
     30      29.0278      0.00000
     31      30.8884      0.00000
     32      33.1747      0.00000

 k-point   288 :      -0.1250    0.3750   -0.3333
  band No.  band energies     occupation 
      1      -8.0253      2.00000
      2      -7.7208      2.00000
      3      -5.9177      2.00000
      4      -5.8693      2.00000
      5      -5.8423      2.00000
      6      -5.7844      2.00000
      7      -5.6358      2.00000
      8      -5.5348      2.00000
      9      -5.4482      2.00000
     10      -5.4001      2.00000
     11      -5.0023      2.00000
     12      -4.2138      2.00000
     13       0.7271      2.00000
     14       1.7539      2.00000
     15       4.6635      2.00000
     16       6.3921      2.00000
     17       6.9511      2.00000
     18       7.2374      2.00000
     19      13.7549      0.00000
     20      14.4967      0.00000
     21      15.1857      0.00000
     22      16.3490      0.00000
     23      18.3152      0.00000
     24      18.7930      0.00000
     25      21.0175      0.00000
     26      21.2085      0.00000
     27      25.8782      0.00000
     28      26.4380      0.00000
     29      27.9176      0.00000
     30      29.5366      0.00000
     31      31.2406      0.00000
     32      31.7645      0.00000

 k-point   289 :       0.0000    0.5000   -0.3333
  band No.  band energies     occupation 
      1      -7.5980      2.00000
      2      -7.5074      2.00000
      3      -5.9263      2.00000
      4      -5.8851      2.00000
      5      -5.7900      2.00000
      6      -5.7845      2.00000
      7      -5.5705      2.00000
      8      -5.5444      2.00000
      9      -5.4061      2.00000
     10      -5.3819      2.00000
     11      -4.7894      2.00000
     12      -4.6839      2.00000
     13      -0.1480      2.00000
     14       0.1903      2.00000
     15       5.4898      2.00000
     16       6.0679      2.00000
     17       7.4656      2.00000
     18       7.9239      2.00000
     19      13.3719      0.00000
     20      13.6611      0.00000
     21      17.3218      0.00000
     22      17.3500      0.00000
     23      18.1009      0.00000
     24      18.2991      0.00000
     25      21.9201      0.00000
     26      22.4056      0.00000
     27      23.9657      0.00000
     28      25.0341      0.00000
     29      28.9622      0.00000
     30      30.3979      0.00000
     31      30.9707      0.00000
     32      31.7423      0.00000

 k-point   290 :       0.1250    0.5000   -0.3333
  band No.  band energies     occupation 
      1      -7.6381      2.00000
      2      -7.5490      2.00000
      3      -5.9087      2.00000
      4      -5.8540      2.00000
      5      -5.8301      2.00000
      6      -5.8064      2.00000
      7      -5.6263      2.00000
      8      -5.5188      2.00000
      9      -5.4272      2.00000
     10      -5.3673      2.00000
     11      -4.5696      2.00000
     12      -4.3420      2.00000
     13       0.0483      2.00000
     14       0.4528      2.00000
     15       5.3959      2.00000
     16       5.8778      2.00000
     17       6.7659      2.00000
     18       7.0869      2.00000
     19      13.8971      0.00000
     20      14.0986      0.00000
     21      16.1339      0.00000
     22      16.8444      0.00000
     23      18.1011      0.00000
     24      18.6753      0.00000
     25      20.5529      0.00000
     26      22.3017      0.00000
     27      25.0896      0.00000
     28      26.0859      0.00000
     29      28.8434      0.00000
     30      29.8561      0.00000
     31      31.3662      0.00000
     32      32.0172      0.00000

 k-point   291 :       0.2500    0.5000   -0.3333
  band No.  band energies     occupation 
      1      -7.7432      2.00000
      2      -7.6481      2.00000
      3      -5.9362      2.00000
      4      -5.8943      2.00000
      5      -5.7777      2.00000
      6      -5.6783      2.00000
      7      -5.6227      2.00000
      8      -5.5572      2.00000
      9      -5.4003      2.00000
     10      -5.3577      2.00000
     11      -4.0453      2.00000
     12      -3.6270      2.00000
     13       0.6735      2.00000
     14       1.1628      2.00000
     15       4.1571      2.00000
     16       4.9571      2.00000
     17       5.7925      2.00000
     18       6.6900      2.00000
     19      12.9927      0.00000
     20      13.7420      0.00000
     21      15.2064      0.00000
     22      16.1854      0.00000
     23      18.2277      0.00000
     24      18.9622      0.00000
     25      21.1690      0.00000
     26      21.9210      0.00000
     27      24.6415      0.00000
     28      26.7403      0.00000
     29      28.5047      0.00000
     30      30.1660      0.00000
     31      31.5822      0.00000
     32      33.1574      0.00000

 k-point   292 :       0.3750    0.5000   -0.3333
  band No.  band energies     occupation 
      1      -7.8470      2.00000
      2      -7.7462      2.00000
      3      -5.9295      2.00000
      4      -5.8679      2.00000
      5      -5.8062      2.00000
      6      -5.6302      2.00000
      7      -5.5886      2.00000
      8      -5.5348      2.00000
      9      -5.3140      2.00000
     10      -5.3054      2.00000
     11      -3.4001      2.00000
     12      -2.8968      2.00000
     13       1.5952      2.00000
     14       1.7573      2.00000
     15       3.0237      2.00000
     16       3.6389      2.00000
     17       5.2762      2.00000
     18       6.3744      2.00000
     19      11.3093      0.00000
     20      12.0367      0.00000
     21      15.5791      0.00000
     22      16.6787      0.00000
     23      18.1049      0.00000
     24      19.2636      0.00000
     25      20.5639      0.00000
     26      21.7300      0.00000
     27      24.8091      0.00000
     28      27.3630      0.00000
     29      28.5464      0.00000
     30      30.3005      0.00000
     31      31.5403      0.00000
     32      33.2479      0.00000

 k-point   293 :       0.5000    0.5000   -0.3333
  band No.  band energies     occupation 
      1      -7.8881      2.00000
      2      -7.7862      2.00000
      3      -5.9334      2.00000
      4      -5.8438      2.00000
      5      -5.8081      2.00000
      6      -5.6427      2.00000
      7      -5.5761      2.00000
      8      -5.5347      2.00000
      9      -5.2624      2.00000
     10      -5.2569      2.00000
     11      -3.0213      2.00000
     12      -2.5704      2.00000
     13       1.3165      2.00000
     14       2.3467      2.00000
     15       2.7310      2.00000
     16       3.8093      2.00000
     17       4.7347      2.00000
     18       5.8499      2.00000
     19      10.7231      0.00000
     20      11.4574      0.00000
     21      15.3476      0.00000
     22      17.5183      0.00000
     23      18.1415      0.00000
     24      19.2074      0.00000
     25      20.3948      0.00000
     26      20.6527      0.00000
     27      25.3385      0.00000
     28      27.6567      0.00000
     29      28.9628      0.00000
     30      30.4569      0.00000
     31      31.5832      0.00000
     32      33.3214      0.00000

 k-point   294 :      -0.3750    0.5000   -0.3333
  band No.  band energies     occupation 
      1      -7.8470      2.00000
      2      -7.7462      2.00000
      3      -5.9295      2.00000
      4      -5.8679      2.00000
      5      -5.8062      2.00000
      6      -5.6302      2.00000
      7      -5.5886      2.00000
      8      -5.5348      2.00000
      9      -5.3139      2.00000
     10      -5.3054      2.00000
     11      -3.4001      2.00000
     12      -2.8969      2.00000
     13       1.5952      2.00000
     14       1.7573      2.00000
     15       3.0237      2.00000
     16       3.6389      2.00000
     17       5.2763      2.00000
     18       6.3744      2.00000
     19      11.3094      0.00000
     20      12.0366      0.00000
     21      15.5791      0.00000
     22      16.6785      0.00000
     23      18.1049      0.00000
     24      19.2635      0.00000
     25      20.5639      0.00000
     26      21.7300      0.00000
     27      24.8091      0.00000
     28      27.3631      0.00000
     29      28.5464      0.00000
     30      30.3006      0.00000
     31      31.5405      0.00000
     32      33.2478      0.00000

 k-point   295 :      -0.2500    0.5000   -0.3333
  band No.  band energies     occupation 
      1      -7.7432      2.00000
      2      -7.6481      2.00000
      3      -5.9362      2.00000
      4      -5.8943      2.00000
      5      -5.7777      2.00000
      6      -5.6783      2.00000
      7      -5.6227      2.00000
      8      -5.5572      2.00000
      9      -5.4003      2.00000
     10      -5.3577      2.00000
     11      -4.0452      2.00000
     12      -3.6271      2.00000
     13       0.6735      2.00000
     14       1.1628      2.00000
     15       4.1571      2.00000
     16       4.9572      2.00000
     17       5.7926      2.00000
     18       6.6900      2.00000
     19      12.9929      0.00000
     20      13.7419      0.00000
     21      15.2063      0.00000
     22      16.1853      0.00000
     23      18.2277      0.00000
     24      18.9622      0.00000
     25      21.1692      0.00000
     26      21.9209      0.00000
     27      24.6412      0.00000
     28      26.7405      0.00000
     29      28.5048      0.00000
     30      30.1661      0.00000
     31      31.5824      0.00000
     32      33.1573      0.00000

 k-point   296 :      -0.1250    0.5000   -0.3333
  band No.  band energies     occupation 
      1      -7.6381      2.00000
      2      -7.5490      2.00000
      3      -5.9087      2.00000
      4      -5.8540      2.00000
      5      -5.8301      2.00000
      6      -5.8064      2.00000
      7      -5.6263      2.00000
      8      -5.5188      2.00000
      9      -5.4272      2.00000
     10      -5.3674      2.00000
     11      -4.5696      2.00000
     12      -4.3421      2.00000
     13       0.0483      2.00000
     14       0.4528      2.00000
     15       5.3959      2.00000
     16       5.8778      2.00000
     17       6.7659      2.00000
     18       7.0869      2.00000
     19      13.8973      0.00000
     20      14.0984      0.00000
     21      16.1338      0.00000
     22      16.8444      0.00000
     23      18.1012      0.00000
     24      18.6753      0.00000
     25      20.5529      0.00000
     26      22.3016      0.00000
     27      25.0894      0.00000
     28      26.0858      0.00000
     29      28.8434      0.00000
     30      29.8561      0.00000
     31      31.3662      0.00000
     32      32.0176      0.00000

 k-point   297 :       0.0000   -0.3750   -0.3333
  band No.  band energies     occupation 
      1      -7.9099      2.00000
      2      -7.6290      2.00000
      3      -5.9345      2.00000
      4      -5.8851      2.00000
      5      -5.8062      2.00000
      6      -5.7721      2.00000
      7      -5.5816      2.00000
      8      -5.5442      2.00000
      9      -5.4262      2.00000
     10      -5.4152      2.00000
     11      -5.2065      2.00000
     12      -4.4912      2.00000
     13       0.2689      2.00000
     14       1.2020      2.00000
     15       4.8096      2.00000
     16       6.5814      2.00000
     17       7.3426      2.00000
     18       7.8778      2.00000
     19      13.2516      0.00000
     20      14.3892      0.00000
     21      16.4218      0.00000
     22      17.6149      0.00000
     23      17.8875      0.00000
     24      18.5483      0.00000
     25      22.1472      0.00000
     26      22.4573      0.00000
     27      23.9582      0.00000
     28      26.4370      0.00000
     29      28.4715      0.00000
     30      29.4671      0.00000
     31      30.5336      0.00000
     32      31.3179      0.00000

 k-point   298 :       0.1250   -0.3750   -0.3333
  band No.  band energies     occupation 
      1      -8.0253      2.00000
      2      -7.7208      2.00000
      3      -5.9177      2.00000
      4      -5.8693      2.00000
      5      -5.8423      2.00000
      6      -5.7844      2.00000
      7      -5.6358      2.00000
      8      -5.5348      2.00000
      9      -5.4483      2.00000
     10      -5.4001      2.00000
     11      -5.0024      2.00000
     12      -4.2138      2.00000
     13       0.7272      2.00000
     14       1.7539      2.00000
     15       4.6635      2.00000
     16       6.3921      2.00000
     17       6.9510      2.00000
     18       7.2374      2.00000
     19      13.7549      0.00000
     20      14.4966      0.00000
     21      15.1857      0.00000
     22      16.3491      0.00000
     23      18.3152      0.00000
     24      18.7930      0.00000
     25      21.0175      0.00000
     26      21.2085      0.00000
     27      25.8784      0.00000
     28      26.4381      0.00000
     29      27.9176      0.00000
     30      29.5365      0.00000
     31      31.2407      0.00000
     32      31.7643      0.00000

 k-point   299 :       0.2500   -0.3750   -0.3333
  band No.  band energies     occupation 
      1      -8.0345      2.00000
      2      -7.7826      2.00000
      3      -5.9039      2.00000
      4      -5.8706      2.00000
      5      -5.7771      2.00000
      6      -5.6800      2.00000
      7      -5.6525      2.00000
      8      -5.5735      2.00000
      9      -5.4286      2.00000
     10      -5.3844      2.00000
     11      -4.6318      2.00000
     12      -3.7227      2.00000
     13       1.6297      2.00000
     14       2.5345      2.00000
     15       4.1764      2.00000
     16       5.0379      2.00000
     17       5.7293      2.00000
     18       6.7510      2.00000
     19      12.2864      0.00000
     20      13.3459      0.00000
     21      15.4381      0.00000
     22      16.3591      0.00000
     23      18.5831      0.00000
     24      19.7028      0.00000
     25      20.6692      0.00000
     26      21.0201      0.00000
     27      24.5748      0.00000
     28      26.5897      0.00000
     29      28.0909      0.00000
     30      29.0276      0.00000
     31      30.8880      0.00000
     32      33.1749      0.00000

 k-point   300 :       0.3750   -0.3750   -0.3333
  band No.  band energies     occupation 
      1      -7.9644      2.00000
      2      -7.7913      2.00000
      3      -5.9131      2.00000
      4      -5.8251      2.00000
      5      -5.8243      2.00000
      6      -5.6506      2.00000
      7      -5.5856      2.00000
      8      -5.5657      2.00000
      9      -5.3533      2.00000
     10      -5.3271      2.00000
     11      -4.0435      2.00000
     12      -3.1556      2.00000
     13       2.3954      2.00000
     14       2.7516      2.00000
     15       2.8457      2.00000
     16       4.1633      2.00000
     17       5.2508      2.00000
     18       6.2284      2.00000
     19      10.9969      0.00000
     20      12.1392      0.00000
     21      15.9660      0.00000
     22      16.7807      0.00000
     23      17.8590      0.00000
     24      20.2139      0.00000
     25      20.6099      0.00000
     26      20.9906      0.00000
     27      24.2954      0.00000
     28      27.5701      0.00000
     29      27.8436      0.00000
     30      29.4605      0.00000
     31      30.9476      0.00000
     32      33.3492      0.00000

 k-point   301 :       0.5000   -0.3750   -0.3333
  band No.  band energies     occupation 
      1      -7.8470      2.00000
      2      -7.7462      2.00000
      3      -5.9295      2.00000
      4      -5.8679      2.00000
      5      -5.8062      2.00000
      6      -5.6302      2.00000
      7      -5.5886      2.00000
      8      -5.5348      2.00000
      9      -5.3140      2.00000
     10      -5.3054      2.00000
     11      -3.4001      2.00000
     12      -2.8968      2.00000
     13       1.5952      2.00000
     14       1.7573      2.00000
     15       3.0237      2.00000
     16       3.6389      2.00000
     17       5.2762      2.00000
     18       6.3744      2.00000
     19      11.3093      0.00000
     20      12.0367      0.00000
     21      15.5791      0.00000
     22      16.6787      0.00000
     23      18.1049      0.00000
     24      19.2636      0.00000
     25      20.5639      0.00000
     26      21.7300      0.00000
     27      24.8091      0.00000
     28      27.3630      0.00000
     29      28.5464      0.00000
     30      30.3005      0.00000
     31      31.5403      0.00000
     32      33.2479      0.00000

 k-point   302 :      -0.3750   -0.3750   -0.3333
  band No.  band energies     occupation 
      1      -7.7073      2.00000
      2      -7.6737      2.00000
      3      -5.9346      2.00000
      4      -5.8477      2.00000
      5      -5.8466      2.00000
      6      -5.6057      2.00000
      7      -5.5961      2.00000
      8      -5.5174      2.00000
      9      -5.3785      2.00000
     10      -5.3631      2.00000
     11      -3.4601      2.00000
     12      -3.3161      2.00000
     13       1.4854      2.00000
     14       1.7831      2.00000
     15       2.0335      2.00000
     16       3.6000      2.00000
     17       5.9607      2.00000
     18       6.5112      2.00000
     19      12.9008      0.00000
     20      13.0112      0.00000
     21      15.6153      0.00000
     22      16.5754      0.00000
     23      17.2282      0.00000
     24      18.5798      0.00000
     25      22.0572      0.00000
     26      22.4357      0.00000
     27      24.6529      0.00000
     28      27.4436      0.00000
     29      27.6944      0.00000
     30      30.2884      0.00000
     31      32.2248      0.00000
     32      33.2434      0.00000

 k-point   303 :      -0.2500   -0.3750   -0.3333
  band No.  band energies     occupation 
      1      -7.6462      2.00000
      2      -7.5911      2.00000
      3      -5.9161      2.00000
      4      -5.8592      2.00000
      5      -5.7829      2.00000
      6      -5.6675      2.00000
      7      -5.6035      2.00000
      8      -5.5588      2.00000
      9      -5.4553      2.00000
     10      -5.4122      2.00000
     11      -4.3581      2.00000
     12      -3.8418      2.00000
     13       0.8177      2.00000
     14       1.2467      2.00000
     15       3.4873      2.00000
     16       4.8080      2.00000
     17       6.0961      2.00000
     18       6.4646      2.00000
     19      14.4475      0.00000
     20      14.7837      0.00000
     21      15.6713      0.00000
     22      16.6107      0.00000
     23      17.1419      0.00000
     24      18.5655      0.00000
     25      21.8791      0.00000
     26      22.9685      0.00000
     27      24.3389      0.00000
     28      27.0461      0.00000
     29      28.1065      0.00000
     30      29.5998      0.00000
     31      32.5128      0.00000
     32      33.0181      0.00000

 k-point   304 :      -0.1250   -0.3750   -0.3333
  band No.  band energies     occupation 
      1      -7.7396      2.00000
      2      -7.5639      2.00000
      3      -5.9005      2.00000
      4      -5.8415      2.00000
      5      -5.7726      2.00000
      6      -5.7457      2.00000
      7      -5.6351      2.00000
      8      -5.5299      2.00000
      9      -5.4735      2.00000
     10      -5.4147      2.00000
     11      -5.0192      2.00000
     12      -4.3580      2.00000
     13       0.3005      2.00000
     14       1.0480      2.00000
     15       4.8902      2.00000
     16       6.1261      2.00000
     17       6.3745      2.00000
     18       6.9469      2.00000
     19      13.8834      0.00000
     20      14.9749      0.00000
     21      16.4806      0.00000
     22      17.4362      0.00000
     23      17.9851      0.00000
     24      18.7605      0.00000
     25      21.2949      0.00000
     26      23.0351      0.00000
     27      24.2026      0.00000
     28      26.5122      0.00000
     29      28.4983      0.00000
     30      29.7425      0.00000
     31      30.7196      0.00000
     32      31.2557      0.00000

 k-point   305 :      -0.0000   -0.2500   -0.3333
  band No.  band energies     occupation 
      1      -8.5579      2.00000
      2      -7.9869      2.00000
      3      -5.9452      2.00000
      4      -5.8881      2.00000
      5      -5.7985      2.00000
      6      -5.6977      2.00000
      7      -5.6184      2.00000
      8      -5.5809      2.00000
      9      -5.5041      2.00000
     10      -5.4326      2.00000
     11      -5.3941      2.00000
     12      -4.6576      2.00000
     13       1.6259      2.00000
     14       3.0574      2.00000
     15       4.2901      2.00000
     16       6.8257      2.00000
     17       7.1403      2.00000
     18       7.7394      2.00000
     19      13.4857      0.00000
     20      14.4310      0.00000
     21      16.1570      0.00000
     22      17.1282      0.00000
     23      18.3669      0.00000
     24      18.9025      0.00000
     25      22.2305      0.00000
     26      22.7525      0.00000
     27      24.4909      0.00000
     28      26.6043      0.00000
     29      27.0971      0.00000
     30      28.9959      0.00000
     31      30.4444      0.00000
     32      32.1889      0.00000

 k-point   306 :       0.1250   -0.2500   -0.3333
  band No.  band energies     occupation 
      1      -8.5958      2.00000
      2      -8.0391      2.00000
      3      -5.9029      2.00000
      4      -5.8415      2.00000
      5      -5.7885      2.00000
      6      -5.7243      2.00000
      7      -5.6704      2.00000
      8      -5.6060      2.00000
      9      -5.5311      2.00000
     10      -5.4229      2.00000
     11      -5.2767      2.00000
     12      -4.5002      2.00000
     13       2.1817      2.00000
     14       3.7225      2.00000
     15       4.2447      2.00000
     16       6.3720      2.00000
     17       6.6376      2.00000
     18       7.3693      2.00000
     19      13.7471      0.00000
     20      14.2457      0.00000
     21      15.6331      0.00000
     22      16.5822      0.00000
     23      18.8958      0.00000
     24      19.3792      0.00000
     25      20.2747      0.00000
     26      21.0190      0.00000
     27      24.9651      0.00000
     28      26.6220      0.00000
     29      27.0729      0.00000
     30      28.1730      0.00000
     31      31.5656      0.00000
     32      32.4119      0.00000

 k-point   307 :       0.2500   -0.2500   -0.3333
  band No.  band energies     occupation 
      1      -8.3759      2.00000
      2      -7.9456      2.00000
      3      -5.8445      2.00000
      4      -5.8155      2.00000
      5      -5.8059      2.00000
      6      -5.6786      2.00000
      7      -5.6750      2.00000
      8      -5.6390      2.00000
      9      -5.5175      2.00000
     10      -5.4155      2.00000
     11      -5.0707      2.00000
     12      -4.1610      2.00000
     13       2.7695      2.00000
     14       3.7901      2.00000
     15       4.1400      2.00000
     16       5.0669      2.00000
     17       5.7029      2.00000
     18       6.9986      2.00000
     19      12.9146      0.00000
     20      13.8696      0.00000
     21      15.5517      0.00000
     22      16.6285      0.00000
     23      18.7518      0.00000
     24      19.9133      0.00000
     25      20.1636      0.00000
     26      20.5552      0.00000
     27      25.3928      0.00000
     28      25.5983      0.00000
     29      27.4940      0.00000
     30      27.5182      0.00000
     31      31.4975      0.00000
     32      33.3271      0.00000

 k-point   308 :       0.3750   -0.2500   -0.3333
  band No.  band energies     occupation 
      1      -8.0345      2.00000
      2      -7.7826      2.00000
      3      -5.9039      2.00000
      4      -5.8706      2.00000
      5      -5.7771      2.00000
      6      -5.6800      2.00000
      7      -5.6525      2.00000
      8      -5.5735      2.00000
      9      -5.4286      2.00000
     10      -5.3844      2.00000
     11      -4.6318      2.00000
     12      -3.7227      2.00000
     13       1.6297      2.00000
     14       2.5345      2.00000
     15       4.1764      2.00000
     16       5.0379      2.00000
     17       5.7293      2.00000
     18       6.7510      2.00000
     19      12.2864      0.00000
     20      13.3459      0.00000
     21      15.4381      0.00000
     22      16.3591      0.00000
     23      18.5831      0.00000
     24      19.7028      0.00000
     25      20.6692      0.00000
     26      21.0201      0.00000
     27      24.5748      0.00000
     28      26.5897      0.00000
     29      28.0909      0.00000
     30      29.0276      0.00000
     31      30.8880      0.00000
     32      33.1749      0.00000

 k-point   309 :       0.5000   -0.2500   -0.3333
  band No.  band energies     occupation 
      1      -7.7432      2.00000
      2      -7.6481      2.00000
      3      -5.9362      2.00000
      4      -5.8943      2.00000
      5      -5.7777      2.00000
      6      -5.6783      2.00000
      7      -5.6227      2.00000
      8      -5.5572      2.00000
      9      -5.4003      2.00000
     10      -5.3577      2.00000
     11      -4.0453      2.00000
     12      -3.6270      2.00000
     13       0.6735      2.00000
     14       1.1628      2.00000
     15       4.1571      2.00000
     16       4.9571      2.00000
     17       5.7925      2.00000
     18       6.6900      2.00000
     19      12.9927      0.00000
     20      13.7420      0.00000
     21      15.2064      0.00000
     22      16.1854      0.00000
     23      18.2277      0.00000
     24      18.9622      0.00000
     25      21.1690      0.00000
     26      21.9210      0.00000
     27      24.6415      0.00000
     28      26.7403      0.00000
     29      28.5047      0.00000
     30      30.1660      0.00000
     31      31.5822      0.00000
     32      33.1574      0.00000

 k-point   310 :      -0.3750   -0.2500   -0.3333
  band No.  band energies     occupation 
      1      -7.6462      2.00000
      2      -7.5911      2.00000
      3      -5.9161      2.00000
      4      -5.8592      2.00000
      5      -5.7829      2.00000
      6      -5.6675      2.00000
      7      -5.6035      2.00000
      8      -5.5588      2.00000
      9      -5.4553      2.00000
     10      -5.4122      2.00000
     11      -4.3581      2.00000
     12      -3.8418      2.00000
     13       0.8176      2.00000
     14       1.2467      2.00000
     15       3.4873      2.00000
     16       4.8080      2.00000
     17       6.0961      2.00000
     18       6.4646      2.00000
     19      14.4474      0.00000
     20      14.7837      0.00000
     21      15.6714      0.00000
     22      16.6107      0.00000
     23      17.1420      0.00000
     24      18.5654      0.00000
     25      21.8790      0.00000
     26      22.9686      0.00000
     27      24.3391      0.00000
     28      27.0461      0.00000
     29      28.1064      0.00000
     30      29.5998      0.00000
     31      32.5128      0.00000
     32      33.0181      0.00000

 k-point   311 :      -0.2500   -0.2500   -0.3333
  band No.  band energies     occupation 
      1      -7.8628      2.00000
      2      -7.6269      2.00000
      3      -5.8647      2.00000
      4      -5.8249      2.00000
      5      -5.7188      2.00000
      6      -5.6547      2.00000
      7      -5.6271      2.00000
      8      -5.6258      2.00000
      9      -5.5265      2.00000
     10      -5.5067      2.00000
     11      -5.0625      2.00000
     12      -4.2328      2.00000
     13       1.2519      2.00000
     14       2.1287      2.00000
     15       3.8413      2.00000
     16       5.1469      2.00000
     17       5.4452      2.00000
     18       6.8773      2.00000
     19      15.0293      0.00000
     20      15.7256      0.00000
     21      16.3610      0.00000
     22      17.1458      0.00000
     23      17.2772      0.00000
     24      18.2725      0.00000
     25      22.7851      0.00000
     26      23.3646      0.00000
     27      23.5542      0.00000
     28      27.5869      0.00000
     29      28.5090      0.00000
     30      28.9044      0.00000
     31      31.0369      0.00000
     32      32.2537      0.00000

 k-point   312 :      -0.1250   -0.2500   -0.3333
  band No.  band energies     occupation 
      1      -8.2556      2.00000
      2      -7.8053      2.00000
      3      -5.8866      2.00000
      4      -5.8499      2.00000
      5      -5.7753      2.00000
      6      -5.6918      2.00000
      7      -5.6155      2.00000
      8      -5.5789      2.00000
      9      -5.5585      2.00000
     10      -5.4832      2.00000
     11      -5.3512      2.00000
     12      -4.5756      2.00000
     13       1.3738      2.00000
     14       2.6101      2.00000
     15       4.5451      2.00000
     16       5.7045      2.00000
     17       6.5159      2.00000
     18       7.1127      2.00000
     19      14.1656      0.00000
     20      15.7375      0.00000
     21      16.3001      0.00000
     22      17.4637      0.00000
     23      17.8113      0.00000
     24      18.4726      0.00000
     25      23.1655      0.00000
     26      23.8263      0.00000
     27      24.0468      0.00000
     28      27.3211      0.00000
     29      28.1254      0.00000
     30      28.7148      0.00000
     31      29.0504      0.00000
     32      31.1116      0.00000

 k-point   313 :      -0.0000   -0.1250   -0.3333
  band No.  band energies     occupation 
      1      -9.1072      2.00000
      2      -8.3464      2.00000
      3      -5.9338      2.00000
      4      -5.8771      2.00000
      5      -5.8321      2.00000
      6      -5.6507      2.00000
      7      -5.6027      2.00000
      8      -5.5760      2.00000
      9      -5.5311      2.00000
     10      -5.4514      2.00000
     11      -5.4158      2.00000
     12      -4.8870      2.00000
     13       2.3374      2.00000
     14       4.8846      2.00000
     15       4.9840      2.00000
     16       6.7308      2.00000
     17       7.0736      2.00000
     18       7.7537      2.00000
     19      12.9155      0.00000
     20      13.1265      0.00000
     21      17.2274      0.00000
     22      17.5434      0.00000
     23      18.3027      0.00000
     24      19.3385      0.00000
     25      22.3597      0.00000
     26      22.5963      0.00000
     27      23.9462      0.00000
     28      25.9539      0.00000
     29      26.7431      0.00000
     30      29.9546      0.00000
     31      30.5743      0.00000
     32      31.9508      0.00000

 k-point   314 :       0.1250   -0.1250   -0.3333
  band No.  band energies     occupation 
      1      -9.0205      2.00000
      2      -8.3007      2.00000
      3      -5.8792      2.00000
      4      -5.8551      2.00000
      5      -5.8133      2.00000
      6      -5.6985      2.00000
      7      -5.6292      2.00000
      8      -5.6008      2.00000
      9      -5.5744      2.00000
     10      -5.4203      2.00000
     11      -5.3829      2.00000
     12      -4.7733      2.00000
     13       2.5200      2.00000
     14       4.9789      2.00000
     15       5.3613      2.00000
     16       6.0784      2.00000
     17       6.5230      2.00000
     18       7.5892      2.00000
     19      13.1735      0.00000
     20      13.4792      0.00000
     21      16.8444      0.00000
     22      17.3885      0.00000
     23      18.7432      0.00000
     24      19.8750      0.00000
     25      20.5258      0.00000
     26      20.9937      0.00000
     27      23.6327      0.00000
     28      26.4358      0.00000
     29      26.8725      0.00000
     30      29.4861      0.00000
     31      30.5398      0.00000
     32      32.8404      0.00000

 k-point   315 :       0.2500   -0.1250   -0.3333
  band No.  band energies     occupation 
      1      -8.5958      2.00000
      2      -8.0391      2.00000
      3      -5.9029      2.00000
      4      -5.8415      2.00000
      5      -5.7885      2.00000
      6      -5.7243      2.00000
      7      -5.6704      2.00000
      8      -5.6060      2.00000
      9      -5.5311      2.00000
     10      -5.4229      2.00000
     11      -5.2767      2.00000
     12      -4.5002      2.00000
     13       2.1817      2.00000
     14       3.7225      2.00000
     15       4.2447      2.00000
     16       6.3720      2.00000
     17       6.6376      2.00000
     18       7.3693      2.00000
     19      13.7471      0.00000
     20      14.2457      0.00000
     21      15.6331      0.00000
     22      16.5822      0.00000
     23      18.8958      0.00000
     24      19.3792      0.00000
     25      20.2747      0.00000
     26      21.0190      0.00000
     27      24.9651      0.00000
     28      26.6220      0.00000
     29      27.0729      0.00000
     30      28.1730      0.00000
     31      31.5656      0.00000
     32      32.4119      0.00000

 k-point   316 :       0.3750   -0.1250   -0.3333
  band No.  band energies     occupation 
      1      -8.0253      2.00000
      2      -7.7208      2.00000
      3      -5.9177      2.00000
      4      -5.8693      2.00000
      5      -5.8423      2.00000
      6      -5.7844      2.00000
      7      -5.6358      2.00000
      8      -5.5348      2.00000
      9      -5.4483      2.00000
     10      -5.4001      2.00000
     11      -5.0024      2.00000
     12      -4.2138      2.00000
     13       0.7272      2.00000
     14       1.7539      2.00000
     15       4.6635      2.00000
     16       6.3921      2.00000
     17       6.9510      2.00000
     18       7.2374      2.00000
     19      13.7549      0.00000
     20      14.4966      0.00000
     21      15.1857      0.00000
     22      16.3491      0.00000
     23      18.3152      0.00000
     24      18.7930      0.00000
     25      21.0175      0.00000
     26      21.2085      0.00000
     27      25.8784      0.00000
     28      26.4381      0.00000
     29      27.9176      0.00000
     30      29.5365      0.00000
     31      31.2407      0.00000
     32      31.7643      0.00000

 k-point   317 :       0.5000   -0.1250   -0.3333
  band No.  band energies     occupation 
      1      -7.6381      2.00000
      2      -7.5490      2.00000
      3      -5.9087      2.00000
      4      -5.8540      2.00000
      5      -5.8301      2.00000
      6      -5.8064      2.00000
      7      -5.6263      2.00000
      8      -5.5188      2.00000
      9      -5.4272      2.00000
     10      -5.3673      2.00000
     11      -4.5696      2.00000
     12      -4.3420      2.00000
     13       0.0483      2.00000
     14       0.4528      2.00000
     15       5.3959      2.00000
     16       5.8778      2.00000
     17       6.7659      2.00000
     18       7.0869      2.00000
     19      13.8971      0.00000
     20      14.0986      0.00000
     21      16.1339      0.00000
     22      16.8444      0.00000
     23      18.1011      0.00000
     24      18.6753      0.00000
     25      20.5529      0.00000
     26      22.3017      0.00000
     27      25.0896      0.00000
     28      26.0859      0.00000
     29      28.8434      0.00000
     30      29.8561      0.00000
     31      31.3662      0.00000
     32      32.0172      0.00000

 k-point   318 :      -0.3750   -0.1250   -0.3333
  band No.  band energies     occupation 
      1      -7.7396      2.00000
      2      -7.5639      2.00000
      3      -5.9005      2.00000
      4      -5.8415      2.00000
      5      -5.7727      2.00000
      6      -5.7457      2.00000
      7      -5.6351      2.00000
      8      -5.5299      2.00000
      9      -5.4735      2.00000
     10      -5.4147      2.00000
     11      -5.0192      2.00000
     12      -4.3580      2.00000
     13       0.3004      2.00000
     14       1.0480      2.00000
     15       4.8903      2.00000
     16       6.1261      2.00000
     17       6.3744      2.00000
     18       6.9470      2.00000
     19      13.8832      0.00000
     20      14.9751      0.00000
     21      16.4807      0.00000
     22      17.4361      0.00000
     23      17.9851      0.00000
     24      18.7604      0.00000
     25      21.2949      0.00000
     26      23.0351      0.00000
     27      24.2028      0.00000
     28      26.5123      0.00000
     29      28.4984      0.00000
     30      29.7424      0.00000
     31      30.7197      0.00000
     32      31.2555      0.00000

 k-point   319 :      -0.2500   -0.1250   -0.3333
  band No.  band energies     occupation 
      1      -8.2556      2.00000
      2      -7.8053      2.00000
      3      -5.8866      2.00000
      4      -5.8499      2.00000
      5      -5.7753      2.00000
      6      -5.6918      2.00000
      7      -5.6155      2.00000
      8      -5.5789      2.00000
      9      -5.5585      2.00000
     10      -5.4832      2.00000
     11      -5.3512      2.00000
     12      -4.5756      2.00000
     13       1.3737      2.00000
     14       2.6102      2.00000
     15       4.5452      2.00000
     16       5.7045      2.00000
     17       6.5158      2.00000
     18       7.1127      2.00000
     19      14.1655      0.00000
     20      15.7375      0.00000
     21      16.3002      0.00000
     22      17.4637      0.00000
     23      17.8114      0.00000
     24      18.4725      0.00000
     25      23.1655      0.00000
     26      23.8263      0.00000
     27      24.0468      0.00000
     28      27.3211      0.00000
     29      28.1255      0.00000
     30      28.7148      0.00000
     31      29.0505      0.00000
     32      31.1114      0.00000

 k-point   320 :      -0.1250   -0.1250   -0.3333
  band No.  band energies     occupation 
      1      -8.8163      2.00000
      2      -8.1426      2.00000
      3      -5.9249      2.00000
      4      -5.8694      2.00000
      5      -5.8310      2.00000
      6      -5.6469      2.00000
      7      -5.5976      2.00000
      8      -5.5954      2.00000
      9      -5.5130      2.00000
     10      -5.4845      2.00000
     11      -5.4414      2.00000
     12      -4.7952      2.00000
     13       2.1218      2.00000
     14       4.0247      2.00000
     15       4.7419      2.00000
     16       6.0877      2.00000
     17       7.0974      2.00000
     18       7.0988      2.00000
     19      13.8023      0.00000
     20      14.2873      0.00000
     21      17.2579      0.00000
     22      17.3173      0.00000
     23      17.9929      0.00000
     24      18.4036      0.00000
     25      23.7169      0.00000
     26      23.9886      0.00000
     27      25.2893      0.00000
     28      25.3843      0.00000
     29      27.1789      0.00000
     30      29.3258      0.00000
     31      29.9850      0.00000
     32      31.1175      0.00000

 k-point   321 :       0.0000   -0.0000   -0.1667
  band No.  band energies     occupation 
      1      -9.6449      2.00000
      2      -8.2833      2.00000
      3      -5.9475      2.00000
      4      -5.8951      2.00000
      5      -5.8434      2.00000
      6      -5.6385      2.00000
      7      -5.6289      2.00000
      8      -5.5434      2.00000
      9      -5.5408      2.00000
     10      -5.4259      2.00000
     11      -5.3619      2.00000
     12      -4.2262      2.00000
     13       0.7206      2.00000
     14       5.2085      2.00000
     15       6.9264      2.00000
     16       6.9500      2.00000
     17       7.3866      2.00000
     18       8.2118      2.00000
     19      11.4827      0.00000
     20      11.6415      0.00000
     21      17.5613      0.00000
     22      18.9523      0.00000
     23      19.3320      0.00000
     24      21.2717      0.00000
     25      22.3119      0.00000
     26      22.4599      0.00000
     27      22.6652      0.00000
     28      26.1478      0.00000
     29      26.9100      0.00000
     30      27.6100      0.00000
     31      27.8580      0.00000
     32      30.5336      0.00000

 k-point   322 :       0.1250    0.0000   -0.1667
  band No.  band energies     occupation 
      1      -9.4280      2.00000
      2      -8.1672      2.00000
      3      -5.9458      2.00000
      4      -5.8788      2.00000
      5      -5.8186      2.00000
      6      -5.6473      2.00000
      7      -5.6295      2.00000
      8      -5.5703      2.00000
      9      -5.5364      2.00000
     10      -5.4598      2.00000
     11      -5.3861      2.00000
     12      -4.1333      2.00000
     13       0.9004      2.00000
     14       4.4201      2.00000
     15       5.8145      2.00000
     16       6.7032      2.00000
     17       7.5348      2.00000
     18       8.0186      2.00000
     19      12.3166      0.00000
     20      12.4845      0.00000
     21      17.7039      0.00000
     22      18.5545      0.00000
     23      19.0049      0.00000
     24      20.1874      0.00000
     25      22.2004      0.00000
     26      22.7312      0.00000
     27      23.3577      0.00000
     28      25.0070      0.00000
     29      27.1747      0.00000
     30      28.3347      0.00000
     31      29.8061      0.00000
     32      31.3663      0.00000

 k-point   323 :       0.2500   -0.0000   -0.1667
  band No.  band energies     occupation 
      1      -8.8341      2.00000
      2      -7.8844      2.00000
      3      -5.9477      2.00000
      4      -5.8673      2.00000
      5      -5.7710      2.00000
      6      -5.6484      2.00000
      7      -5.6393      2.00000
      8      -5.5990      2.00000
      9      -5.5518      2.00000
     10      -5.4768      2.00000
     11      -5.3902      2.00000
     12      -3.9697      2.00000
     13       1.1290      2.00000
     14       2.9445      2.00000
     15       3.8666      2.00000
     16       6.7700      2.00000
     17       7.1746      2.00000
     18       7.9919      2.00000
     19      13.3340      0.00000
     20      14.1210      0.00000
     21      16.9719      0.00000
     22      17.6567      0.00000
     23      18.5303      0.00000
     24      19.3456      0.00000
     25      22.2625      0.00000
     26      23.0128      0.00000
     27      23.8314      0.00000
     28      25.9313      0.00000
     29      27.2517      0.00000
     30      29.1361      0.00000
     31      29.9914      0.00000
     32      30.6603      0.00000

 k-point   324 :       0.3750   -0.0000   -0.1667
  band No.  band energies     occupation 
      1      -8.0954      2.00000
      2      -7.6158      2.00000
      3      -5.9245      2.00000
      4      -5.8368      2.00000
      5      -5.7850      2.00000
      6      -5.7201      2.00000
      7      -5.6332      2.00000
      8      -5.5957      2.00000
      9      -5.4896      2.00000
     10      -5.4118      2.00000
     11      -5.2586      2.00000
     12      -4.0466      2.00000
     13       0.4456      2.00000
     14       1.9652      2.00000
     15       3.2743      2.00000
     16       6.0974      2.00000
     17       7.1121      2.00000
     18       8.0637      2.00000
     19      14.0189      0.00000
     20      15.2882      0.00000
     21      16.3048      0.00000
     22      17.3011      0.00000
     23      18.0040      0.00000
     24      18.4435      0.00000
     25      22.4003      0.00000
     26      23.2337      0.00000
     27      23.7081      0.00000
     28      26.7371      0.00000
     29      27.8807      0.00000
     30      28.9598      0.00000
     31      30.3176      0.00000
     32      30.9614      0.00000

 k-point   325 :       0.5000    0.0000   -0.1667
  band No.  band energies     occupation 
      1      -7.7059      2.00000
      2      -7.5467      2.00000
      3      -5.9084      2.00000
      4      -5.8119      2.00000
      5      -5.7627      2.00000
      6      -5.7578      2.00000
      7      -5.6197      2.00000
      8      -5.6119      2.00000
      9      -5.4529      2.00000
     10      -5.4087      2.00000
     11      -4.7629      2.00000
     12      -4.5862      2.00000
     13       0.3748      2.00000
     14       0.8767      2.00000
     15       4.1660      2.00000
     16       5.1081      2.00000
     17       7.2438      2.00000
     18       8.0833      2.00000
     19      14.5998      0.00000
     20      14.7395      0.00000
     21      17.0552      0.00000
     22      17.2272      0.00000
     23      17.8474      0.00000
     24      17.8957      0.00000
     25      22.0320      0.00000
     26      22.7094      0.00000
     27      24.7160      0.00000
     28      25.6950      0.00000
     29      28.3805      0.00000
     30      29.3329      0.00000
     31      30.4737      0.00000
     32      31.2983      0.00000

 k-point   326 :      -0.3750    0.0000   -0.1667
  band No.  band energies     occupation 
      1      -8.0954      2.00000
      2      -7.6158      2.00000
      3      -5.9245      2.00000
      4      -5.8368      2.00000
      5      -5.7850      2.00000
      6      -5.7201      2.00000
      7      -5.6332      2.00000
      8      -5.5957      2.00000
      9      -5.4896      2.00000
     10      -5.4118      2.00000
     11      -5.2585      2.00000
     12      -4.0466      2.00000
     13       0.4456      2.00000
     14       1.9652      2.00000
     15       3.2743      2.00000
     16       6.0974      2.00000
     17       7.1121      2.00000
     18       8.0637      2.00000
     19      14.0188      0.00000
     20      15.2884      0.00000
     21      16.3049      0.00000
     22      17.3011      0.00000
     23      18.0038      0.00000
     24      18.4435      0.00000
     25      22.4003      0.00000
     26      23.2336      0.00000
     27      23.7083      0.00000
     28      26.7371      0.00000
     29      27.8808      0.00000
     30      28.9598      0.00000
     31      30.3177      0.00000
     32      30.9613      0.00000

 k-point   327 :      -0.2500   -0.0000   -0.1667
  band No.  band energies     occupation 
      1      -8.8341      2.00000
      2      -7.8844      2.00000
      3      -5.9477      2.00000
      4      -5.8673      2.00000
      5      -5.7710      2.00000
      6      -5.6484      2.00000
      7      -5.6393      2.00000
      8      -5.5989      2.00000
      9      -5.5518      2.00000
     10      -5.4768      2.00000
     11      -5.3902      2.00000
     12      -3.9697      2.00000
     13       1.1290      2.00000
     14       2.9445      2.00000
     15       3.8666      2.00000
     16       6.7700      2.00000
     17       7.1746      2.00000
     18       7.9919      2.00000
     19      13.3339      0.00000
     20      14.1210      0.00000
     21      16.9720      0.00000
     22      17.6567      0.00000
     23      18.5302      0.00000
     24      19.3455      0.00000
     25      22.2626      0.00000
     26      23.0129      0.00000
     27      23.8315      0.00000
     28      25.9313      0.00000
     29      27.2517      0.00000
     30      29.1360      0.00000
     31      29.9914      0.00000
     32      30.6603      0.00000

 k-point   328 :      -0.1250    0.0000   -0.1667
  band No.  band energies     occupation 
      1      -9.4280      2.00000
      2      -8.1672      2.00000
      3      -5.9458      2.00000
      4      -5.8788      2.00000
      5      -5.8186      2.00000
      6      -5.6473      2.00000
      7      -5.6295      2.00000
      8      -5.5703      2.00000
      9      -5.5363      2.00000
     10      -5.4598      2.00000
     11      -5.3861      2.00000
     12      -4.1333      2.00000
     13       0.9004      2.00000
     14       4.4201      2.00000
     15       5.8145      2.00000
     16       6.7032      2.00000
     17       7.5348      2.00000
     18       8.0185      2.00000
     19      12.3166      0.00000
     20      12.4845      0.00000
     21      17.7039      0.00000
     22      18.5545      0.00000
     23      19.0048      0.00000
     24      20.1874      0.00000
     25      22.2005      0.00000
     26      22.7311      0.00000
     27      23.3577      0.00000
     28      25.0070      0.00000
     29      27.1748      0.00000
     30      28.3347      0.00000
     31      29.8060      0.00000
     32      31.3664      0.00000

 k-point   329 :      -0.0000    0.1250   -0.1667
  band No.  band energies     occupation 
      1      -9.4280      2.00000
      2      -8.1672      2.00000
      3      -5.9458      2.00000
      4      -5.8788      2.00000
      5      -5.8186      2.00000
      6      -5.6473      2.00000
      7      -5.6295      2.00000
      8      -5.5703      2.00000
      9      -5.5363      2.00000
     10      -5.4598      2.00000
     11      -5.3861      2.00000
     12      -4.1333      2.00000
     13       0.9004      2.00000
     14       4.4201      2.00000
     15       5.8145      2.00000
     16       6.7032      2.00000
     17       7.5348      2.00000
     18       8.0185      2.00000
     19      12.3166      0.00000
     20      12.4845      0.00000
     21      17.7039      0.00000
     22      18.5545      0.00000
     23      19.0048      0.00000
     24      20.1874      0.00000
     25      22.2005      0.00000
     26      22.7311      0.00000
     27      23.3577      0.00000
     28      25.0070      0.00000
     29      27.1748      0.00000
     30      28.3347      0.00000
     31      29.8060      0.00000
     32      31.3664      0.00000

 k-point   330 :       0.1250    0.1250   -0.1667
  band No.  band energies     occupation 
      1      -9.1185      2.00000
      2      -8.0021      2.00000
      3      -5.9322      2.00000
      4      -5.8363      2.00000
      5      -5.8355      2.00000
      6      -5.6560      2.00000
      7      -5.6221      2.00000
      8      -5.5696      2.00000
      9      -5.5413      2.00000
     10      -5.4828      2.00000
     11      -5.4386      2.00000
     12      -4.0769      2.00000
     13       1.0855      2.00000
     14       3.8705      2.00000
     15       4.8870      2.00000
     16       5.7660      2.00000
     17       7.4560      2.00000
     18       7.4987      2.00000
     19      13.1909      0.00000
     20      13.9285      0.00000
     21      17.8310      0.00000
     22      18.1405      0.00000
     23      18.9427      0.00000
     24      18.9717      0.00000
     25      22.4769      0.00000
     26      23.5507      0.00000
     27      25.2866      0.00000
     28      25.3031      0.00000
     29      27.9543      0.00000
     30      28.0852      0.00000
     31      29.4069      0.00000
     32      31.7169      0.00000

 k-point   331 :       0.2500    0.1250   -0.1667
  band No.  band energies     occupation 
      1      -8.4992      2.00000
      2      -7.7437      2.00000
      3      -5.8770      2.00000
      4      -5.8150      2.00000
      5      -5.7666      2.00000
      6      -5.6705      2.00000
      7      -5.6545      2.00000
      8      -5.5871      2.00000
      9      -5.5609      2.00000
     10      -5.4847      2.00000
     11      -5.4270      2.00000
     12      -3.9504      2.00000
     13       1.1621      2.00000
     14       3.1306      2.00000
     15       3.4325      2.00000
     16       5.2845      2.00000
     17       6.8125      2.00000
     18       7.1402      2.00000
     19      14.1738      0.00000
     20      15.5356      0.00000
     21      17.0117      0.00000
     22      17.6372      0.00000
     23      18.3855      0.00000
     24      19.3224      0.00000
     25      21.8954      0.00000
     26      23.6372      0.00000
     27      23.9022      0.00000
     28      26.5842      0.00000
     29      27.7870      0.00000
     30      29.1187      0.00000
     31      31.2651      0.00000
     32      31.9790      0.00000

 k-point   332 :       0.3750    0.1250   -0.1667
  band No.  band energies     occupation 
      1      -7.8839      2.00000
      2      -7.5789      2.00000
      3      -5.8888      2.00000
      4      -5.7832      2.00000
      5      -5.7507      2.00000
      6      -5.7221      2.00000
      7      -5.6611      2.00000
      8      -5.5623      2.00000
      9      -5.4834      2.00000
     10      -5.4214      2.00000
     11      -5.1438      2.00000
     12      -4.0186      2.00000
     13       0.5842      2.00000
     14       1.7913      2.00000
     15       3.6458      2.00000
     16       5.6338      2.00000
     17       5.8579      2.00000
     18       7.1684      2.00000
     19      14.4718      0.00000
     20      16.0769      0.00000
     21      16.4254      0.00000
     22      16.9432      0.00000
     23      18.2744      0.00000
     24      19.2450      0.00000
     25      20.7387      0.00000
     26      23.1527      0.00000
     27      23.6038      0.00000
     28      27.6703      0.00000
     29      28.5001      0.00000
     30      29.8970      0.00000
     31      30.6945      0.00000
     32      31.7933      0.00000

 k-point   333 :       0.5000    0.1250   -0.1667
  band No.  band energies     occupation 
      1      -7.7447      2.00000
      2      -7.5889      2.00000
      3      -5.8963      2.00000
      4      -5.8327      2.00000
      5      -5.8033      2.00000
      6      -5.7492      2.00000
      7      -5.6282      2.00000
      8      -5.5399      2.00000
      9      -5.4613      2.00000
     10      -5.3919      2.00000
     11      -4.6071      2.00000
     12      -4.2460      2.00000
     13       0.5235      2.00000
     14       1.1276      2.00000
     15       4.1760      2.00000
     16       5.1263      2.00000
     17       6.4028      2.00000
     18       7.3329      2.00000
     19      14.5794      0.00000
     20      15.1662      0.00000
     21      16.0588      0.00000
     22      16.8330      0.00000
     23      17.7190      0.00000
     24      18.1674      0.00000
     25      21.1454      0.00000
     26      23.2584      0.00000
     27      24.5225      0.00000
     28      26.3579      0.00000
     29      28.4495      0.00000
     30      30.0412      0.00000
     31      31.2819      0.00000
     32      31.8492      0.00000

 k-point   334 :      -0.3750    0.1250   -0.1667
  band No.  band energies     occupation 
      1      -8.2165      2.00000
      2      -7.6995      2.00000
      3      -5.9165      2.00000
      4      -5.8405      2.00000
      5      -5.8228      2.00000
      6      -5.7275      2.00000
      7      -5.6325      2.00000
      8      -5.5386      2.00000
      9      -5.4955      2.00000
     10      -5.4008      2.00000
     11      -5.1271      2.00000
     12      -3.6999      2.00000
     13       0.7769      2.00000
     14       2.4673      2.00000
     15       3.1791      2.00000
     16       6.1246      2.00000
     17       6.8696      2.00000
     18       7.3603      2.00000
     19      14.1471      0.00000
     20      14.6237      0.00000
     21      15.6658      0.00000
     22      16.6992      0.00000
     23      17.8339      0.00000
     24      18.1570      0.00000
     25      21.9462      0.00000
     26      22.3398      0.00000
     27      25.2368      0.00000
     28      25.9955      0.00000
     29      27.1873      0.00000
     30      29.5758      0.00000
     31      30.8703      0.00000
     32      32.3273      0.00000

 k-point   335 :      -0.2500    0.1250   -0.1667
  band No.  band energies     occupation 
      1      -8.8658      2.00000
      2      -7.9385      2.00000
      3      -5.9093      2.00000
      4      -5.8332      2.00000
      5      -5.7570      2.00000
      6      -5.7091      2.00000
      7      -5.6473      2.00000
      8      -5.5839      2.00000
      9      -5.5611      2.00000
     10      -5.4362      2.00000
     11      -5.3541      2.00000
     12      -3.7837      2.00000
     13       1.3910      2.00000
     14       3.2554      2.00000
     15       4.4520      2.00000
     16       6.3179      2.00000
     17       6.8506      2.00000
     18       7.5419      2.00000
     19      13.4700      0.00000
     20      13.7075      0.00000
     21      16.7165      0.00000
     22      17.4903      0.00000
     23      18.4563      0.00000
     24      19.0289      0.00000
     25      20.8748      0.00000
     26      21.3782      0.00000
     27      24.4575      0.00000
     28      25.8047      0.00000
     29      27.2267      0.00000
     30      28.5587      0.00000
     31      30.1157      0.00000
     32      32.7581      0.00000

 k-point   336 :      -0.1250    0.1250   -0.1667
  band No.  band energies     occupation 
      1      -9.3313      2.00000
      2      -8.1376      2.00000
      3      -5.8958      2.00000
      4      -5.8729      2.00000
      5      -5.7827      2.00000
      6      -5.6796      2.00000
      7      -5.6354      2.00000
      8      -5.6036      2.00000
      9      -5.5587      2.00000
     10      -5.4606      2.00000
     11      -5.3646      2.00000
     12      -4.0192      2.00000
     13       1.0494      2.00000
     14       4.6126      2.00000
     15       6.1205      2.00000
     16       6.4212      2.00000
     17       6.5318      2.00000
     18       7.8469      2.00000
     19      12.6629      0.00000
     20      12.8188      0.00000
     21      18.0347      0.00000
     22      18.3696      0.00000
     23      18.9495      0.00000
     24      20.1548      0.00000
     25      20.4820      0.00000
     26      21.0117      0.00000
     27      23.1199      0.00000
     28      25.2710      0.00000
     29      27.7596      0.00000
     30      29.0107      0.00000
     31      29.5367      0.00000
     32      30.7764      0.00000

 k-point   337 :       0.0000    0.2500   -0.1667
  band No.  band energies     occupation 
      1      -8.8341      2.00000
      2      -7.8844      2.00000
      3      -5.9477      2.00000
      4      -5.8673      2.00000
      5      -5.7710      2.00000
      6      -5.6484      2.00000
      7      -5.6393      2.00000
      8      -5.5989      2.00000
      9      -5.5518      2.00000
     10      -5.4768      2.00000
     11      -5.3902      2.00000
     12      -3.9697      2.00000
     13       1.1290      2.00000
     14       2.9445      2.00000
     15       3.8666      2.00000
     16       6.7700      2.00000
     17       7.1746      2.00000
     18       7.9919      2.00000
     19      13.3339      0.00000
     20      14.1210      0.00000
     21      16.9720      0.00000
     22      17.6567      0.00000
     23      18.5302      0.00000
     24      19.3455      0.00000
     25      22.2626      0.00000
     26      23.0129      0.00000
     27      23.8315      0.00000
     28      25.9313      0.00000
     29      27.2517      0.00000
     30      29.1360      0.00000
     31      29.9914      0.00000
     32      30.6603      0.00000

 k-point   338 :       0.1250    0.2500   -0.1667
  band No.  band energies     occupation 
      1      -8.4992      2.00000
      2      -7.7437      2.00000
      3      -5.8770      2.00000
      4      -5.8150      2.00000
      5      -5.7666      2.00000
      6      -5.6705      2.00000
      7      -5.6545      2.00000
      8      -5.5871      2.00000
      9      -5.5609      2.00000
     10      -5.4847      2.00000
     11      -5.4270      2.00000
     12      -3.9504      2.00000
     13       1.1621      2.00000
     14       3.1306      2.00000
     15       3.4325      2.00000
     16       5.2845      2.00000
     17       6.8124      2.00000
     18       7.1403      2.00000
     19      14.1737      0.00000
     20      15.5356      0.00000
     21      17.0118      0.00000
     22      17.6373      0.00000
     23      18.3853      0.00000
     24      19.3223      0.00000
     25      21.8954      0.00000
     26      23.6372      0.00000
     27      23.9021      0.00000
     28      26.5842      0.00000
     29      27.7870      0.00000
     30      29.1187      0.00000
     31      31.2654      0.00000
     32      31.9788      0.00000

 k-point   339 :       0.2500    0.2500   -0.1667
  band No.  band energies     occupation 
      1      -8.0317      2.00000
      2      -7.6256      2.00000
      3      -5.8699      2.00000
      4      -5.7567      2.00000
      5      -5.7387      2.00000
      6      -5.6501      2.00000
      7      -5.6097      2.00000
      8      -5.6056      2.00000
      9      -5.5213      2.00000
     10      -5.4746      2.00000
     11      -5.2695      2.00000
     12      -3.7425      2.00000
     13       1.3636      2.00000
     14       2.8570      2.00000
     15       3.4199      2.00000
     16       3.9371      2.00000
     17       5.8371      2.00000
     18       6.3652      2.00000
     19      15.0439      0.00000
     20      15.6790      0.00000
     21      16.3544      0.00000
     22      17.6075      0.00000
     23      18.3032      0.00000
     24      18.9486      0.00000
     25      22.1606      0.00000
     26      22.4520      0.00000
     27      23.3577      0.00000
     28      27.4444      0.00000
     29      29.4037      0.00000
     30      29.9323      0.00000
     31      31.4258      0.00000
     32      32.9857      0.00000

 k-point   340 :       0.3750    0.2500   -0.1667
  band No.  band energies     occupation 
      1      -7.7381      2.00000
      2      -7.6393      2.00000
      3      -5.9248      2.00000
      4      -5.8333      2.00000
      5      -5.7499      2.00000
      6      -5.6359      2.00000
      7      -5.5867      2.00000
      8      -5.5216      2.00000
      9      -5.4676      2.00000
     10      -5.4153      2.00000
     11      -4.5235      2.00000
     12      -3.6404      2.00000
     13       1.1726      2.00000
     14       1.8892      2.00000
     15       3.1086      2.00000
     16       4.9547      2.00000
     17       5.2742      2.00000
     18       5.7935      2.00000
     19      14.1984      0.00000
     20      14.8773      0.00000
     21      15.3599      0.00000
     22      17.1036      0.00000
     23      18.2643      0.00000
     24      19.0771      0.00000
     25      21.5137      0.00000
     26      23.0413      0.00000
     27      24.0786      0.00000
     28      27.1407      0.00000
     29      29.1340      0.00000
     30      30.2900      0.00000
     31      31.1626      0.00000
     32      32.9085      0.00000

 k-point   341 :       0.5000    0.2500   -0.1667
  band No.  band energies     occupation 
      1      -7.8461      2.00000
      2      -7.6830      2.00000
      3      -5.9391      2.00000
      4      -5.8898      2.00000
      5      -5.7357      2.00000
      6      -5.6461      2.00000
      7      -5.5961      2.00000
      8      -5.4971      2.00000
      9      -5.4310      2.00000
     10      -5.3673      2.00000
     11      -4.1695      2.00000
     12      -3.4762      2.00000
     13       0.9951      2.00000
     14       1.6817      2.00000
     15       3.9061      2.00000
     16       4.3839      2.00000
     17       5.6985      2.00000
     18       6.2634      2.00000
     19      12.7221      0.00000
     20      13.5271      0.00000
     21      15.2458      0.00000
     22      16.6319      0.00000
     23      18.3403      0.00000
     24      19.4367      0.00000
     25      21.5284      0.00000
     26      22.7178      0.00000
     27      24.2178      0.00000
     28      26.6459      0.00000
     29      29.0892      0.00000
     30      30.5798      0.00000
     31      31.1306      0.00000
     32      33.5941      0.00000

 k-point   342 :      -0.3750    0.2500   -0.1667
  band No.  band energies     occupation 
      1      -8.2002      2.00000
      2      -7.7714      2.00000
      3      -5.9057      2.00000
      4      -5.8763      2.00000
      5      -5.7419      2.00000
      6      -5.6564      2.00000
      7      -5.6126      2.00000
      8      -5.5168      2.00000
      9      -5.4515      2.00000
     10      -5.3728      2.00000
     11      -4.8436      2.00000
     12      -3.1603      2.00000
     13       1.5437      2.00000
     14       2.9461      2.00000
     15       3.2293      2.00000
     16       5.0639      2.00000
     17       5.6086      2.00000
     18       6.9132      2.00000
     19      12.1894      0.00000
     20      12.8883      0.00000
     21      15.8643      0.00000
     22      16.7119      0.00000
     23      17.9341      0.00000
     24      19.6837      0.00000
     25      21.3726      0.00000
     26      21.8299      0.00000
     27      24.3443      0.00000
     28      26.3554      0.00000
     29      27.8109      0.00000
     30      30.3408      0.00000
     31      31.5698      0.00000
     32      33.2968      0.00000

 k-point   343 :      -0.2500    0.2500   -0.1667
  band No.  band energies     occupation 
      1      -8.6061      2.00000
      2      -7.8833      2.00000
      3      -5.8553      2.00000
      4      -5.8264      2.00000
      5      -5.7756      2.00000
      6      -5.6506      2.00000
      7      -5.6315      2.00000
      8      -5.5926      2.00000
      9      -5.5476      2.00000
     10      -5.3655      2.00000
     11      -5.2684      2.00000
     12      -3.4515      2.00000
     13       1.8867      2.00000
     14       3.3723      2.00000
     15       4.5084      2.00000
     16       5.1694      2.00000
     17       5.6109      2.00000
     18       7.2681      2.00000
     19      12.8907      0.00000
     20      13.2779      0.00000
     21      16.4829      0.00000
     22      17.2047      0.00000
     23      17.9670      0.00000
     24      19.8837      0.00000
     25      20.3857      0.00000
     26      20.7589      0.00000
     27      25.2014      0.00000
     28      25.5928      0.00000
     29      26.5942      0.00000
     30      29.1073      0.00000
     31      32.4486      0.00000
     32      33.2351      0.00000

 k-point   344 :      -0.1250    0.2500   -0.1667
  band No.  band energies     occupation 
      1      -8.8658      2.00000
      2      -7.9385      2.00000
      3      -5.9093      2.00000
      4      -5.8332      2.00000
      5      -5.7570      2.00000
      6      -5.7091      2.00000
      7      -5.6473      2.00000
      8      -5.5839      2.00000
      9      -5.5611      2.00000
     10      -5.4362      2.00000
     11      -5.3541      2.00000
     12      -3.7837      2.00000
     13       1.3910      2.00000
     14       3.2554      2.00000
     15       4.4520      2.00000
     16       6.3179      2.00000
     17       6.8506      2.00000
     18       7.5419      2.00000
     19      13.4700      0.00000
     20      13.7075      0.00000
     21      16.7165      0.00000
     22      17.4903      0.00000
     23      18.4563      0.00000
     24      19.0289      0.00000
     25      20.8748      0.00000
     26      21.3782      0.00000
     27      24.4575      0.00000
     28      25.8047      0.00000
     29      27.2267      0.00000
     30      28.5587      0.00000
     31      30.1157      0.00000
     32      32.7581      0.00000

 k-point   345 :      -0.0000    0.3750   -0.1667
  band No.  band energies     occupation 
      1      -8.0954      2.00000
      2      -7.6158      2.00000
      3      -5.9245      2.00000
      4      -5.8368      2.00000
      5      -5.7850      2.00000
      6      -5.7201      2.00000
      7      -5.6332      2.00000
      8      -5.5957      2.00000
      9      -5.4896      2.00000
     10      -5.4118      2.00000
     11      -5.2585      2.00000
     12      -4.0466      2.00000
     13       0.4456      2.00000
     14       1.9652      2.00000
     15       3.2743      2.00000
     16       6.0974      2.00000
     17       7.1121      2.00000
     18       8.0637      2.00000
     19      14.0188      0.00000
     20      15.2884      0.00000
     21      16.3049      0.00000
     22      17.3011      0.00000
     23      18.0038      0.00000
     24      18.4435      0.00000
     25      22.4003      0.00000
     26      23.2336      0.00000
     27      23.7083      0.00000
     28      26.7371      0.00000
     29      27.8808      0.00000
     30      28.9598      0.00000
     31      30.3177      0.00000
     32      30.9613      0.00000

 k-point   346 :       0.1250    0.3750   -0.1667
  band No.  band energies     occupation 
      1      -7.8839      2.00000
      2      -7.5789      2.00000
      3      -5.8888      2.00000
      4      -5.7832      2.00000
      5      -5.7506      2.00000
      6      -5.7221      2.00000
      7      -5.6611      2.00000
      8      -5.5623      2.00000
      9      -5.4834      2.00000
     10      -5.4214      2.00000
     11      -5.1438      2.00000
     12      -4.0187      2.00000
     13       0.5842      2.00000
     14       1.7914      2.00000
     15       3.6459      2.00000
     16       5.6338      2.00000
     17       5.8579      2.00000
     18       7.1684      2.00000
     19      14.4717      0.00000
     20      16.0770      0.00000
     21      16.4256      0.00000
     22      16.9433      0.00000
     23      18.2742      0.00000
     24      19.2449      0.00000
     25      20.7386      0.00000
     26      23.1528      0.00000
     27      23.6040      0.00000
     28      27.6703      0.00000
     29      28.5002      0.00000
     30      29.8971      0.00000
     31      30.6945      0.00000
     32      31.7931      0.00000

 k-point   347 :       0.2500    0.3750   -0.1667
  band No.  band energies     occupation 
      1      -7.7381      2.00000
      2      -7.6393      2.00000
      3      -5.9248      2.00000
      4      -5.8333      2.00000
      5      -5.7499      2.00000
      6      -5.6359      2.00000
      7      -5.5868      2.00000
      8      -5.5216      2.00000
      9      -5.4676      2.00000
     10      -5.4152      2.00000
     11      -4.5235      2.00000
     12      -3.6404      2.00000
     13       1.1725      2.00000
     14       1.8892      2.00000
     15       3.1086      2.00000
     16       4.9547      2.00000
     17       5.2741      2.00000
     18       5.7935      2.00000
     19      14.1983      0.00000
     20      14.8773      0.00000
     21      15.3600      0.00000
     22      17.1037      0.00000
     23      18.2642      0.00000
     24      19.0771      0.00000
     25      21.5135      0.00000
     26      23.0415      0.00000
     27      24.0786      0.00000
     28      27.1408      0.00000
     29      29.1340      0.00000
     30      30.2899      0.00000
     31      31.1623      0.00000
     32      32.9086      0.00000

 k-point   348 :       0.3750    0.3750   -0.1667
  band No.  band energies     occupation 
      1      -7.7817      2.00000
      2      -7.7266      2.00000
      3      -5.9516      2.00000
      4      -5.9023      2.00000
      5      -5.7351      2.00000
      6      -5.5984      2.00000
      7      -5.5244      2.00000
      8      -5.4831      2.00000
      9      -5.3862      2.00000
     10      -5.3614      2.00000
     11      -3.5322      2.00000
     12      -3.2759      2.00000
     13       1.5093      2.00000
     14       1.8817      2.00000
     15       2.4329      2.00000
     16       4.3278      2.00000
     17       5.1548      2.00000
     18       5.8160      2.00000
     19      12.2144      0.00000
     20      12.9208      0.00000
     21      14.4094      0.00000
     22      16.7825      0.00000
     23      18.8568      0.00000
     24      19.7684      0.00000
     25      22.4413      0.00000
     26      22.7617      0.00000
     27      24.1733      0.00000
     28      27.1069      0.00000
     29      29.6968      0.00000
     30      30.1953      0.00000
     31      30.6282      0.00000
     32      33.6123      0.00000

 k-point   349 :       0.5000    0.3750   -0.1667
  band No.  band energies     occupation 
      1      -7.9451      2.00000
      2      -7.7738      2.00000
      3      -5.9438      2.00000
      4      -5.9331      2.00000
      5      -5.7066      2.00000
      6      -5.6223      2.00000
      7      -5.5188      2.00000
      8      -5.4739      2.00000
      9      -5.3166      2.00000
     10      -5.3057      2.00000
     11      -3.5443      2.00000
     12      -2.6706      2.00000
     13       1.4172      2.00000
     14       1.6913      2.00000
     15       3.4759      2.00000
     16       4.0796      2.00000
     17       4.8010      2.00000
     18       6.4431      2.00000
     19      10.5824      0.00000
     20      11.5214      0.00000
     21      14.3881      0.00000
     22      16.5113      0.00000
     23      18.9445      0.00000
     24      20.7554      0.00000
     25      21.5588      0.00000
     26      22.4160      0.00000
     27      24.3035      0.00000
     28      27.9007      0.00000
     29      29.2980      0.00000
     30      29.8989      0.00000
     31      31.6103      0.00000
     32      32.6884      0.00000

 k-point   350 :      -0.3750    0.3750   -0.1667
  band No.  band energies     occupation 
      1      -8.0935      2.00000
      2      -7.7982      2.00000
      3      -5.9286      2.00000
      4      -5.9037      2.00000
      5      -5.7203      2.00000
      6      -5.6328      2.00000
      7      -5.5344      2.00000
      8      -5.4887      2.00000
      9      -5.3636      2.00000
     10      -5.3128      2.00000
     11      -4.2750      2.00000
     12      -2.6489      2.00000
     13       2.2699      2.00000
     14       2.2905      2.00000
     15       2.8836      2.00000
     16       4.7739      2.00000
     17       4.8078      2.00000
     18       6.6407      2.00000
     19      10.5699      0.00000
     20      11.5155      0.00000
     21      15.1010      0.00000
     22      16.7608      0.00000
     23      18.0989      0.00000
     24      20.9798      0.00000
     25      21.4861      0.00000
     26      22.0614      0.00000
     27      23.8656      0.00000
     28      27.5847      0.00000
     29      28.4968      0.00000
     30      30.4501      0.00000
     31      31.1105      0.00000
     32      32.7795      0.00000

 k-point   351 :      -0.2500    0.3750   -0.1667
  band No.  band energies     occupation 
      1      -8.2002      2.00000
      2      -7.7714      2.00000
      3      -5.9057      2.00000
      4      -5.8763      2.00000
      5      -5.7419      2.00000
      6      -5.6564      2.00000
      7      -5.6126      2.00000
      8      -5.5168      2.00000
      9      -5.4515      2.00000
     10      -5.3728      2.00000
     11      -4.8436      2.00000
     12      -3.1603      2.00000
     13       1.5437      2.00000
     14       2.9461      2.00000
     15       3.2293      2.00000
     16       5.0639      2.00000
     17       5.6086      2.00000
     18       6.9132      2.00000
     19      12.1894      0.00000
     20      12.8883      0.00000
     21      15.8643      0.00000
     22      16.7119      0.00000
     23      17.9341      0.00000
     24      19.6837      0.00000
     25      21.3726      0.00000
     26      21.8299      0.00000
     27      24.3443      0.00000
     28      26.3554      0.00000
     29      27.8109      0.00000
     30      30.3408      0.00000
     31      31.5698      0.00000
     32      33.2968      0.00000

 k-point   352 :      -0.1250    0.3750   -0.1667
  band No.  band energies     occupation 
      1      -8.2165      2.00000
      2      -7.6995      2.00000
      3      -5.9165      2.00000
      4      -5.8405      2.00000
      5      -5.8228      2.00000
      6      -5.7275      2.00000
      7      -5.6325      2.00000
      8      -5.5386      2.00000
      9      -5.4955      2.00000
     10      -5.4008      2.00000
     11      -5.1271      2.00000
     12      -3.6999      2.00000
     13       0.7769      2.00000
     14       2.4673      2.00000
     15       3.1791      2.00000
     16       6.1246      2.00000
     17       6.8696      2.00000
     18       7.3603      2.00000
     19      14.1471      0.00000
     20      14.6237      0.00000
     21      15.6658      0.00000
     22      16.6992      0.00000
     23      17.8339      0.00000
     24      18.1570      0.00000
     25      21.9462      0.00000
     26      22.3398      0.00000
     27      25.2368      0.00000
     28      25.9955      0.00000
     29      27.1873      0.00000
     30      29.5758      0.00000
     31      30.8703      0.00000
     32      32.3273      0.00000

 k-point   353 :       0.0000    0.5000   -0.1667
  band No.  band energies     occupation 
      1      -7.7059      2.00000
      2      -7.5467      2.00000
      3      -5.9084      2.00000
      4      -5.8119      2.00000
      5      -5.7627      2.00000
      6      -5.7578      2.00000
      7      -5.6197      2.00000
      8      -5.6119      2.00000
      9      -5.4529      2.00000
     10      -5.4087      2.00000
     11      -4.7629      2.00000
     12      -4.5862      2.00000
     13       0.3748      2.00000
     14       0.8767      2.00000
     15       4.1660      2.00000
     16       5.1081      2.00000
     17       7.2438      2.00000
     18       8.0833      2.00000
     19      14.5998      0.00000
     20      14.7395      0.00000
     21      17.0552      0.00000
     22      17.2272      0.00000
     23      17.8474      0.00000
     24      17.8957      0.00000
     25      22.0320      0.00000
     26      22.7094      0.00000
     27      24.7160      0.00000
     28      25.6950      0.00000
     29      28.3805      0.00000
     30      29.3329      0.00000
     31      30.4737      0.00000
     32      31.2983      0.00000

 k-point   354 :       0.1250    0.5000   -0.1667
  band No.  band energies     occupation 
      1      -7.7447      2.00000
      2      -7.5889      2.00000
      3      -5.8963      2.00000
      4      -5.8327      2.00000
      5      -5.8033      2.00000
      6      -5.7492      2.00000
      7      -5.6282      2.00000
      8      -5.5400      2.00000
      9      -5.4613      2.00000
     10      -5.3919      2.00000
     11      -4.6071      2.00000
     12      -4.2460      2.00000
     13       0.5235      2.00000
     14       1.1276      2.00000
     15       4.1760      2.00000
     16       5.1264      2.00000
     17       6.4028      2.00000
     18       7.3328      2.00000
     19      14.5792      0.00000
     20      15.1663      0.00000
     21      16.0589      0.00000
     22      16.8330      0.00000
     23      17.7189      0.00000
     24      18.1674      0.00000
     25      21.1453      0.00000
     26      23.2585      0.00000
     27      24.5227      0.00000
     28      26.3580      0.00000
     29      28.4495      0.00000
     30      30.0412      0.00000
     31      31.2818      0.00000
     32      31.8491      0.00000

 k-point   355 :       0.2500    0.5000   -0.1667
  band No.  band energies     occupation 
      1      -7.8461      2.00000
      2      -7.6830      2.00000
      3      -5.9391      2.00000
      4      -5.8898      2.00000
      5      -5.7357      2.00000
      6      -5.6461      2.00000
      7      -5.5961      2.00000
      8      -5.4971      2.00000
      9      -5.4311      2.00000
     10      -5.3673      2.00000
     11      -4.1695      2.00000
     12      -3.4762      2.00000
     13       0.9951      2.00000
     14       1.6817      2.00000
     15       3.9061      2.00000
     16       4.3839      2.00000
     17       5.6985      2.00000
     18       6.2634      2.00000
     19      12.7220      0.00000
     20      13.5272      0.00000
     21      15.2459      0.00000
     22      16.6321      0.00000
     23      18.3402      0.00000
     24      19.4368      0.00000
     25      21.5282      0.00000
     26      22.7179      0.00000
     27      24.2180      0.00000
     28      26.6459      0.00000
     29      29.0891      0.00000
     30      30.5795      0.00000
     31      31.1304      0.00000
     32      33.5941      0.00000

 k-point   356 :       0.3750    0.5000   -0.1667
  band No.  band energies     occupation 
      1      -7.9451      2.00000
      2      -7.7738      2.00000
      3      -5.9438      2.00000
      4      -5.9331      2.00000
      5      -5.7066      2.00000
      6      -5.6223      2.00000
      7      -5.5188      2.00000
      8      -5.4739      2.00000
      9      -5.3167      2.00000
     10      -5.3057      2.00000
     11      -3.5444      2.00000
     12      -2.6706      2.00000
     13       1.4172      2.00000
     14       1.6913      2.00000
     15       3.4759      2.00000
     16       4.0796      2.00000
     17       4.8009      2.00000
     18       6.4431      2.00000
     19      10.5823      0.00000
     20      11.5214      0.00000
     21      14.3881      0.00000
     22      16.5113      0.00000
     23      18.9446      0.00000
     24      20.7554      0.00000
     25      21.5588      0.00000
     26      22.4160      0.00000
     27      24.3036      0.00000
     28      27.9007      0.00000
     29      29.2980      0.00000
     30      29.8987      0.00000
     31      31.6103      0.00000
     32      32.6884      0.00000

 k-point   357 :       0.5000    0.5000   -0.1667
  band No.  band energies     occupation 
      1      -7.9838      2.00000
      2      -7.8110      2.00000
      3      -5.9630      2.00000
      4      -5.9305      2.00000
      5      -5.6874      2.00000
      6      -5.6302      2.00000
      7      -5.5033      2.00000
      8      -5.4661      2.00000
      9      -5.2636      2.00000
     10      -5.2518      2.00000
     11      -3.1344      2.00000
     12      -2.3390      2.00000
     13       0.9517      2.00000
     14       1.8676      2.00000
     15       3.5083      2.00000
     16       4.4119      2.00000
     17       4.4433      2.00000
     18       6.3739      2.00000
     19       9.7245      0.00000
     20      10.7067      0.00000
     21      14.0123      0.00000
     22      16.3415      0.00000
     23      19.3527      0.00000
     24      20.8435      0.00000
     25      21.7917      0.00000
     26      21.9387      0.00000
     27      24.8272      0.00000
     28      28.6573      0.00000
     29      29.3431      0.00000
     30      29.5969      0.00000
     31      31.8136      0.00000
     32      32.3743      0.00000

 k-point   358 :      -0.3750    0.5000   -0.1667
  band No.  band energies     occupation 
      1      -7.9451      2.00000
      2      -7.7738      2.00000
      3      -5.9438      2.00000
      4      -5.9331      2.00000
      5      -5.7066      2.00000
      6      -5.6223      2.00000
      7      -5.5188      2.00000
      8      -5.4739      2.00000
      9      -5.3166      2.00000
     10      -5.3057      2.00000
     11      -3.5443      2.00000
     12      -2.6706      2.00000
     13       1.4172      2.00000
     14       1.6913      2.00000
     15       3.4759      2.00000
     16       4.0796      2.00000
     17       4.8010      2.00000
     18       6.4431      2.00000
     19      10.5824      0.00000
     20      11.5214      0.00000
     21      14.3881      0.00000
     22      16.5113      0.00000
     23      18.9445      0.00000
     24      20.7554      0.00000
     25      21.5588      0.00000
     26      22.4160      0.00000
     27      24.3035      0.00000
     28      27.9007      0.00000
     29      29.2980      0.00000
     30      29.8989      0.00000
     31      31.6103      0.00000
     32      32.6884      0.00000

 k-point   359 :      -0.2500    0.5000   -0.1667
  band No.  band energies     occupation 
      1      -7.8461      2.00000
      2      -7.6830      2.00000
      3      -5.9391      2.00000
      4      -5.8898      2.00000
      5      -5.7357      2.00000
      6      -5.6461      2.00000
      7      -5.5961      2.00000
      8      -5.4971      2.00000
      9      -5.4310      2.00000
     10      -5.3673      2.00000
     11      -4.1695      2.00000
     12      -3.4762      2.00000
     13       0.9951      2.00000
     14       1.6817      2.00000
     15       3.9061      2.00000
     16       4.3839      2.00000
     17       5.6985      2.00000
     18       6.2634      2.00000
     19      12.7221      0.00000
     20      13.5271      0.00000
     21      15.2458      0.00000
     22      16.6319      0.00000
     23      18.3403      0.00000
     24      19.4367      0.00000
     25      21.5284      0.00000
     26      22.7178      0.00000
     27      24.2178      0.00000
     28      26.6459      0.00000
     29      29.0892      0.00000
     30      30.5798      0.00000
     31      31.1306      0.00000
     32      33.5941      0.00000

 k-point   360 :      -0.1250    0.5000   -0.1667
  band No.  band energies     occupation 
      1      -7.7447      2.00000
      2      -7.5889      2.00000
      3      -5.8963      2.00000
      4      -5.8327      2.00000
      5      -5.8033      2.00000
      6      -5.7492      2.00000
      7      -5.6282      2.00000
      8      -5.5399      2.00000
      9      -5.4613      2.00000
     10      -5.3919      2.00000
     11      -4.6071      2.00000
     12      -4.2460      2.00000
     13       0.5235      2.00000
     14       1.1276      2.00000
     15       4.1760      2.00000
     16       5.1263      2.00000
     17       6.4028      2.00000
     18       7.3329      2.00000
     19      14.5794      0.00000
     20      15.1662      0.00000
     21      16.0588      0.00000
     22      16.8330      0.00000
     23      17.7190      0.00000
     24      18.1674      0.00000
     25      21.1454      0.00000
     26      23.2584      0.00000
     27      24.5225      0.00000
     28      26.3579      0.00000
     29      28.4495      0.00000
     30      30.0412      0.00000
     31      31.2819      0.00000
     32      31.8492      0.00000

 k-point   361 :      -0.0000   -0.3750   -0.1667
  band No.  band energies     occupation 
      1      -8.0954      2.00000
      2      -7.6158      2.00000
      3      -5.9245      2.00000
      4      -5.8368      2.00000
      5      -5.7850      2.00000
      6      -5.7201      2.00000
      7      -5.6332      2.00000
      8      -5.5957      2.00000
      9      -5.4896      2.00000
     10      -5.4118      2.00000
     11      -5.2586      2.00000
     12      -4.0466      2.00000
     13       0.4456      2.00000
     14       1.9652      2.00000
     15       3.2743      2.00000
     16       6.0974      2.00000
     17       7.1121      2.00000
     18       8.0637      2.00000
     19      14.0189      0.00000
     20      15.2882      0.00000
     21      16.3048      0.00000
     22      17.3011      0.00000
     23      18.0040      0.00000
     24      18.4435      0.00000
     25      22.4003      0.00000
     26      23.2337      0.00000
     27      23.7081      0.00000
     28      26.7371      0.00000
     29      27.8807      0.00000
     30      28.9598      0.00000
     31      30.3176      0.00000
     32      30.9614      0.00000

 k-point   362 :       0.1250   -0.3750   -0.1667
  band No.  band energies     occupation 
      1      -8.2166      2.00000
      2      -7.6995      2.00000
      3      -5.9165      2.00000
      4      -5.8405      2.00000
      5      -5.8228      2.00000
      6      -5.7275      2.00000
      7      -5.6325      2.00000
      8      -5.5386      2.00000
      9      -5.4956      2.00000
     10      -5.4008      2.00000
     11      -5.1271      2.00000
     12      -3.6999      2.00000
     13       0.7770      2.00000
     14       2.4672      2.00000
     15       3.1790      2.00000
     16       6.1246      2.00000
     17       6.8695      2.00000
     18       7.3603      2.00000
     19      14.1471      0.00000
     20      14.6237      0.00000
     21      15.6658      0.00000
     22      16.6992      0.00000
     23      17.8339      0.00000
     24      18.1571      0.00000
     25      21.9461      0.00000
     26      22.3399      0.00000
     27      25.2368      0.00000
     28      25.9957      0.00000
     29      27.1873      0.00000
     30      29.5757      0.00000
     31      30.8703      0.00000
     32      32.3274      0.00000

 k-point   363 :       0.2500   -0.3750   -0.1667
  band No.  band energies     occupation 
      1      -8.2003      2.00000
      2      -7.7714      2.00000
      3      -5.9057      2.00000
      4      -5.8763      2.00000
      5      -5.7419      2.00000
      6      -5.6564      2.00000
      7      -5.6126      2.00000
      8      -5.5169      2.00000
      9      -5.4515      2.00000
     10      -5.3728      2.00000
     11      -4.8436      2.00000
     12      -3.1603      2.00000
     13       1.5438      2.00000
     14       2.9461      2.00000
     15       3.2292      2.00000
     16       5.0639      2.00000
     17       5.6085      2.00000
     18       6.9132      2.00000
     19      12.1894      0.00000
     20      12.8883      0.00000
     21      15.8644      0.00000
     22      16.7120      0.00000
     23      17.9341      0.00000
     24      19.6837      0.00000
     25      21.3727      0.00000
     26      21.8298      0.00000
     27      24.3445      0.00000
     28      26.3553      0.00000
     29      27.8108      0.00000
     30      30.3407      0.00000
     31      31.5693      0.00000
     32      33.2969      0.00000

 k-point   364 :       0.3750   -0.3750   -0.1667
  band No.  band energies     occupation 
      1      -8.0935      2.00000
      2      -7.7982      2.00000
      3      -5.9286      2.00000
      4      -5.9037      2.00000
      5      -5.7203      2.00000
      6      -5.6328      2.00000
      7      -5.5344      2.00000
      8      -5.4887      2.00000
      9      -5.3636      2.00000
     10      -5.3128      2.00000
     11      -4.2750      2.00000
     12      -2.6489      2.00000
     13       2.2699      2.00000
     14       2.2905      2.00000
     15       2.8836      2.00000
     16       4.7739      2.00000
     17       4.8077      2.00000
     18       6.6407      2.00000
     19      10.5698      0.00000
     20      11.5156      0.00000
     21      15.1010      0.00000
     22      16.7608      0.00000
     23      18.0991      0.00000
     24      20.9796      0.00000
     25      21.4861      0.00000
     26      22.0614      0.00000
     27      23.8657      0.00000
     28      27.5847      0.00000
     29      28.4967      0.00000
     30      30.4497      0.00000
     31      31.1104      0.00000
     32      32.7796      0.00000

 k-point   365 :       0.5000   -0.3750   -0.1667
  band No.  band energies     occupation 
      1      -7.9451      2.00000
      2      -7.7738      2.00000
      3      -5.9438      2.00000
      4      -5.9331      2.00000
      5      -5.7066      2.00000
      6      -5.6223      2.00000
      7      -5.5188      2.00000
      8      -5.4739      2.00000
      9      -5.3167      2.00000
     10      -5.3057      2.00000
     11      -3.5444      2.00000
     12      -2.6706      2.00000
     13       1.4172      2.00000
     14       1.6913      2.00000
     15       3.4759      2.00000
     16       4.0796      2.00000
     17       4.8009      2.00000
     18       6.4431      2.00000
     19      10.5823      0.00000
     20      11.5214      0.00000
     21      14.3881      0.00000
     22      16.5113      0.00000
     23      18.9446      0.00000
     24      20.7554      0.00000
     25      21.5588      0.00000
     26      22.4160      0.00000
     27      24.3036      0.00000
     28      27.9007      0.00000
     29      29.2980      0.00000
     30      29.8987      0.00000
     31      31.6103      0.00000
     32      32.6884      0.00000

 k-point   366 :      -0.3750   -0.3750   -0.1667
  band No.  band energies     occupation 
      1      -7.7817      2.00000
      2      -7.7266      2.00000
      3      -5.9516      2.00000
      4      -5.9023      2.00000
      5      -5.7351      2.00000
      6      -5.5984      2.00000
      7      -5.5244      2.00000
      8      -5.4831      2.00000
      9      -5.3862      2.00000
     10      -5.3614      2.00000
     11      -3.5322      2.00000
     12      -3.2759      2.00000
     13       1.5093      2.00000
     14       1.8817      2.00000
     15       2.4329      2.00000
     16       4.3278      2.00000
     17       5.1548      2.00000
     18       5.8160      2.00000
     19      12.2144      0.00000
     20      12.9208      0.00000
     21      14.4094      0.00000
     22      16.7825      0.00000
     23      18.8568      0.00000
     24      19.7684      0.00000
     25      22.4413      0.00000
     26      22.7617      0.00000
     27      24.1733      0.00000
     28      27.1069      0.00000
     29      29.6968      0.00000
     30      30.1953      0.00000
     31      30.6282      0.00000
     32      33.6123      0.00000

 k-point   367 :      -0.2500   -0.3750   -0.1667
  band No.  band energies     occupation 
      1      -7.7381      2.00000
      2      -7.6393      2.00000
      3      -5.9248      2.00000
      4      -5.8333      2.00000
      5      -5.7499      2.00000
      6      -5.6359      2.00000
      7      -5.5867      2.00000
      8      -5.5216      2.00000
      9      -5.4676      2.00000
     10      -5.4153      2.00000
     11      -4.5235      2.00000
     12      -3.6404      2.00000
     13       1.1726      2.00000
     14       1.8892      2.00000
     15       3.1086      2.00000
     16       4.9547      2.00000
     17       5.2742      2.00000
     18       5.7935      2.00000
     19      14.1984      0.00000
     20      14.8773      0.00000
     21      15.3599      0.00000
     22      17.1036      0.00000
     23      18.2643      0.00000
     24      19.0771      0.00000
     25      21.5137      0.00000
     26      23.0413      0.00000
     27      24.0786      0.00000
     28      27.1407      0.00000
     29      29.1340      0.00000
     30      30.2900      0.00000
     31      31.1626      0.00000
     32      32.9085      0.00000

 k-point   368 :      -0.1250   -0.3750   -0.1667
  band No.  band energies     occupation 
      1      -7.8839      2.00000
      2      -7.5789      2.00000
      3      -5.8888      2.00000
      4      -5.7832      2.00000
      5      -5.7507      2.00000
      6      -5.7221      2.00000
      7      -5.6611      2.00000
      8      -5.5623      2.00000
      9      -5.4834      2.00000
     10      -5.4214      2.00000
     11      -5.1438      2.00000
     12      -4.0186      2.00000
     13       0.5842      2.00000
     14       1.7913      2.00000
     15       3.6458      2.00000
     16       5.6338      2.00000
     17       5.8579      2.00000
     18       7.1684      2.00000
     19      14.4718      0.00000
     20      16.0769      0.00000
     21      16.4254      0.00000
     22      16.9432      0.00000
     23      18.2744      0.00000
     24      19.2450      0.00000
     25      20.7387      0.00000
     26      23.1527      0.00000
     27      23.6038      0.00000
     28      27.6703      0.00000
     29      28.5001      0.00000
     30      29.8970      0.00000
     31      30.6945      0.00000
     32      31.7933      0.00000

 k-point   369 :      -0.0000   -0.2500   -0.1667
  band No.  band energies     occupation 
      1      -8.8341      2.00000
      2      -7.8844      2.00000
      3      -5.9477      2.00000
      4      -5.8673      2.00000
      5      -5.7710      2.00000
      6      -5.6484      2.00000
      7      -5.6393      2.00000
      8      -5.5990      2.00000
      9      -5.5518      2.00000
     10      -5.4768      2.00000
     11      -5.3902      2.00000
     12      -3.9697      2.00000
     13       1.1290      2.00000
     14       2.9445      2.00000
     15       3.8666      2.00000
     16       6.7700      2.00000
     17       7.1746      2.00000
     18       7.9919      2.00000
     19      13.3340      0.00000
     20      14.1210      0.00000
     21      16.9719      0.00000
     22      17.6567      0.00000
     23      18.5303      0.00000
     24      19.3456      0.00000
     25      22.2625      0.00000
     26      23.0128      0.00000
     27      23.8314      0.00000
     28      25.9313      0.00000
     29      27.2517      0.00000
     30      29.1361      0.00000
     31      29.9914      0.00000
     32      30.6603      0.00000

 k-point   370 :       0.1250   -0.2500   -0.1667
  band No.  band energies     occupation 
      1      -8.8658      2.00000
      2      -7.9385      2.00000
      3      -5.9093      2.00000
      4      -5.8332      2.00000
      5      -5.7570      2.00000
      6      -5.7091      2.00000
      7      -5.6473      2.00000
      8      -5.5839      2.00000
      9      -5.5611      2.00000
     10      -5.4362      2.00000
     11      -5.3541      2.00000
     12      -3.7837      2.00000
     13       1.3910      2.00000
     14       3.2554      2.00000
     15       4.4520      2.00000
     16       6.3179      2.00000
     17       6.8506      2.00000
     18       7.5419      2.00000
     19      13.4700      0.00000
     20      13.7075      0.00000
     21      16.7164      0.00000
     22      17.4903      0.00000
     23      18.4564      0.00000
     24      19.0289      0.00000
     25      20.8749      0.00000
     26      21.3782      0.00000
     27      24.4576      0.00000
     28      25.8047      0.00000
     29      27.2268      0.00000
     30      28.5587      0.00000
     31      30.1156      0.00000
     32      32.7581      0.00000

 k-point   371 :       0.2500   -0.2500   -0.1667
  band No.  band energies     occupation 
      1      -8.6061      2.00000
      2      -7.8833      2.00000
      3      -5.8553      2.00000
      4      -5.8264      2.00000
      5      -5.7756      2.00000
      6      -5.6506      2.00000
      7      -5.6315      2.00000
      8      -5.5926      2.00000
      9      -5.5476      2.00000
     10      -5.3655      2.00000
     11      -5.2684      2.00000
     12      -3.4514      2.00000
     13       1.8867      2.00000
     14       3.3723      2.00000
     15       4.5083      2.00000
     16       5.1693      2.00000
     17       5.6108      2.00000
     18       7.2682      2.00000
     19      12.8907      0.00000
     20      13.2779      0.00000
     21      16.4829      0.00000
     22      17.2048      0.00000
     23      17.9671      0.00000
     24      19.8836      0.00000
     25      20.3857      0.00000
     26      20.7590      0.00000
     27      25.2014      0.00000
     28      25.5930      0.00000
     29      26.5941      0.00000
     30      29.1072      0.00000
     31      32.4482      0.00000
     32      33.2352      0.00000

 k-point   372 :       0.3750   -0.2500   -0.1667
  band No.  band energies     occupation 
      1      -8.2003      2.00000
      2      -7.7714      2.00000
      3      -5.9057      2.00000
      4      -5.8763      2.00000
      5      -5.7419      2.00000
      6      -5.6564      2.00000
      7      -5.6126      2.00000
      8      -5.5169      2.00000
      9      -5.4515      2.00000
     10      -5.3728      2.00000
     11      -4.8436      2.00000
     12      -3.1603      2.00000
     13       1.5438      2.00000
     14       2.9461      2.00000
     15       3.2292      2.00000
     16       5.0639      2.00000
     17       5.6085      2.00000
     18       6.9132      2.00000
     19      12.1894      0.00000
     20      12.8883      0.00000
     21      15.8644      0.00000
     22      16.7120      0.00000
     23      17.9341      0.00000
     24      19.6837      0.00000
     25      21.3727      0.00000
     26      21.8298      0.00000
     27      24.3445      0.00000
     28      26.3553      0.00000
     29      27.8108      0.00000
     30      30.3407      0.00000
     31      31.5693      0.00000
     32      33.2969      0.00000

 k-point   373 :       0.5000   -0.2500   -0.1667
  band No.  band energies     occupation 
      1      -7.8461      2.00000
      2      -7.6830      2.00000
      3      -5.9391      2.00000
      4      -5.8898      2.00000
      5      -5.7357      2.00000
      6      -5.6461      2.00000
      7      -5.5961      2.00000
      8      -5.4971      2.00000
      9      -5.4311      2.00000
     10      -5.3673      2.00000
     11      -4.1695      2.00000
     12      -3.4762      2.00000
     13       0.9951      2.00000
     14       1.6817      2.00000
     15       3.9061      2.00000
     16       4.3839      2.00000
     17       5.6985      2.00000
     18       6.2634      2.00000
     19      12.7220      0.00000
     20      13.5272      0.00000
     21      15.2459      0.00000
     22      16.6321      0.00000
     23      18.3402      0.00000
     24      19.4368      0.00000
     25      21.5282      0.00000
     26      22.7179      0.00000
     27      24.2180      0.00000
     28      26.6459      0.00000
     29      29.0891      0.00000
     30      30.5795      0.00000
     31      31.1304      0.00000
     32      33.5941      0.00000

 k-point   374 :      -0.3750   -0.2500   -0.1667
  band No.  band energies     occupation 
      1      -7.7381      2.00000
      2      -7.6393      2.00000
      3      -5.9248      2.00000
      4      -5.8333      2.00000
      5      -5.7499      2.00000
      6      -5.6359      2.00000
      7      -5.5868      2.00000
      8      -5.5216      2.00000
      9      -5.4676      2.00000
     10      -5.4152      2.00000
     11      -4.5235      2.00000
     12      -3.6404      2.00000
     13       1.1725      2.00000
     14       1.8892      2.00000
     15       3.1086      2.00000
     16       4.9547      2.00000
     17       5.2741      2.00000
     18       5.7935      2.00000
     19      14.1983      0.00000
     20      14.8773      0.00000
     21      15.3600      0.00000
     22      17.1037      0.00000
     23      18.2642      0.00000
     24      19.0771      0.00000
     25      21.5135      0.00000
     26      23.0415      0.00000
     27      24.0786      0.00000
     28      27.1408      0.00000
     29      29.1340      0.00000
     30      30.2899      0.00000
     31      31.1623      0.00000
     32      32.9086      0.00000

 k-point   375 :      -0.2500   -0.2500   -0.1667
  band No.  band energies     occupation 
      1      -8.0317      2.00000
      2      -7.6256      2.00000
      3      -5.8699      2.00000
      4      -5.7567      2.00000
      5      -5.7387      2.00000
      6      -5.6501      2.00000
      7      -5.6097      2.00000
      8      -5.6056      2.00000
      9      -5.5213      2.00000
     10      -5.4746      2.00000
     11      -5.2695      2.00000
     12      -3.7425      2.00000
     13       1.3636      2.00000
     14       2.8570      2.00000
     15       3.4199      2.00000
     16       3.9371      2.00000
     17       5.8371      2.00000
     18       6.3652      2.00000
     19      15.0439      0.00000
     20      15.6790      0.00000
     21      16.3544      0.00000
     22      17.6075      0.00000
     23      18.3032      0.00000
     24      18.9486      0.00000
     25      22.1606      0.00000
     26      22.4520      0.00000
     27      23.3577      0.00000
     28      27.4444      0.00000
     29      29.4037      0.00000
     30      29.9323      0.00000
     31      31.4258      0.00000
     32      32.9857      0.00000

 k-point   376 :      -0.1250   -0.2500   -0.1667
  band No.  band energies     occupation 
      1      -8.4992      2.00000
      2      -7.7437      2.00000
      3      -5.8770      2.00000
      4      -5.8150      2.00000
      5      -5.7666      2.00000
      6      -5.6705      2.00000
      7      -5.6545      2.00000
      8      -5.5871      2.00000
      9      -5.5609      2.00000
     10      -5.4847      2.00000
     11      -5.4270      2.00000
     12      -3.9504      2.00000
     13       1.1621      2.00000
     14       3.1306      2.00000
     15       3.4325      2.00000
     16       5.2845      2.00000
     17       6.8125      2.00000
     18       7.1402      2.00000
     19      14.1738      0.00000
     20      15.5356      0.00000
     21      17.0117      0.00000
     22      17.6372      0.00000
     23      18.3855      0.00000
     24      19.3224      0.00000
     25      21.8954      0.00000
     26      23.6372      0.00000
     27      23.9022      0.00000
     28      26.5842      0.00000
     29      27.7870      0.00000
     30      29.1187      0.00000
     31      31.2651      0.00000
     32      31.9790      0.00000

 k-point   377 :      -0.0000   -0.1250   -0.1667
  band No.  band energies     occupation 
      1      -9.4280      2.00000
      2      -8.1672      2.00000
      3      -5.9458      2.00000
      4      -5.8788      2.00000
      5      -5.8186      2.00000
      6      -5.6473      2.00000
      7      -5.6295      2.00000
      8      -5.5703      2.00000
      9      -5.5364      2.00000
     10      -5.4598      2.00000
     11      -5.3861      2.00000
     12      -4.1333      2.00000
     13       0.9004      2.00000
     14       4.4201      2.00000
     15       5.8145      2.00000
     16       6.7032      2.00000
     17       7.5348      2.00000
     18       8.0186      2.00000
     19      12.3166      0.00000
     20      12.4845      0.00000
     21      17.7039      0.00000
     22      18.5545      0.00000
     23      19.0049      0.00000
     24      20.1874      0.00000
     25      22.2004      0.00000
     26      22.7312      0.00000
     27      23.3577      0.00000
     28      25.0070      0.00000
     29      27.1747      0.00000
     30      28.3347      0.00000
     31      29.8061      0.00000
     32      31.3663      0.00000

 k-point   378 :       0.1250   -0.1250   -0.1667
  band No.  band energies     occupation 
      1      -9.3313      2.00000
      2      -8.1376      2.00000
      3      -5.8958      2.00000
      4      -5.8729      2.00000
      5      -5.7827      2.00000
      6      -5.6796      2.00000
      7      -5.6354      2.00000
      8      -5.6036      2.00000
      9      -5.5587      2.00000
     10      -5.4607      2.00000
     11      -5.3646      2.00000
     12      -4.0192      2.00000
     13       1.0494      2.00000
     14       4.6126      2.00000
     15       6.1205      2.00000
     16       6.4211      2.00000
     17       6.5318      2.00000
     18       7.8470      2.00000
     19      12.6629      0.00000
     20      12.8187      0.00000
     21      18.0346      0.00000
     22      18.3696      0.00000
     23      18.9496      0.00000
     24      20.1548      0.00000
     25      20.4821      0.00000
     26      21.0118      0.00000
     27      23.1200      0.00000
     28      25.2709      0.00000
     29      27.7596      0.00000
     30      29.0105      0.00000
     31      29.5368      0.00000
     32      30.7763      0.00000

 k-point   379 :       0.2500   -0.1250   -0.1667
  band No.  band energies     occupation 
      1      -8.8658      2.00000
      2      -7.9385      2.00000
      3      -5.9093      2.00000
      4      -5.8332      2.00000
      5      -5.7570      2.00000
      6      -5.7091      2.00000
      7      -5.6473      2.00000
      8      -5.5839      2.00000
      9      -5.5611      2.00000
     10      -5.4362      2.00000
     11      -5.3541      2.00000
     12      -3.7837      2.00000
     13       1.3910      2.00000
     14       3.2554      2.00000
     15       4.4520      2.00000
     16       6.3179      2.00000
     17       6.8506      2.00000
     18       7.5419      2.00000
     19      13.4700      0.00000
     20      13.7075      0.00000
     21      16.7164      0.00000
     22      17.4903      0.00000
     23      18.4564      0.00000
     24      19.0289      0.00000
     25      20.8749      0.00000
     26      21.3782      0.00000
     27      24.4576      0.00000
     28      25.8047      0.00000
     29      27.2268      0.00000
     30      28.5587      0.00000
     31      30.1156      0.00000
     32      32.7581      0.00000

 k-point   380 :       0.3750   -0.1250   -0.1667
  band No.  band energies     occupation 
      1      -8.2166      2.00000
      2      -7.6995      2.00000
      3      -5.9165      2.00000
      4      -5.8405      2.00000
      5      -5.8228      2.00000
      6      -5.7275      2.00000
      7      -5.6325      2.00000
      8      -5.5386      2.00000
      9      -5.4956      2.00000
     10      -5.4008      2.00000
     11      -5.1271      2.00000
     12      -3.6999      2.00000
     13       0.7770      2.00000
     14       2.4672      2.00000
     15       3.1790      2.00000
     16       6.1246      2.00000
     17       6.8695      2.00000
     18       7.3603      2.00000
     19      14.1471      0.00000
     20      14.6237      0.00000
     21      15.6658      0.00000
     22      16.6992      0.00000
     23      17.8339      0.00000
     24      18.1571      0.00000
     25      21.9461      0.00000
     26      22.3399      0.00000
     27      25.2368      0.00000
     28      25.9957      0.00000
     29      27.1873      0.00000
     30      29.5757      0.00000
     31      30.8703      0.00000
     32      32.3274      0.00000

 k-point   381 :       0.5000   -0.1250   -0.1667
  band No.  band energies     occupation 
      1      -7.7447      2.00000
      2      -7.5889      2.00000
      3      -5.8963      2.00000
      4      -5.8327      2.00000
      5      -5.8033      2.00000
      6      -5.7492      2.00000
      7      -5.6282      2.00000
      8      -5.5400      2.00000
      9      -5.4613      2.00000
     10      -5.3919      2.00000
     11      -4.6071      2.00000
     12      -4.2460      2.00000
     13       0.5235      2.00000
     14       1.1276      2.00000
     15       4.1760      2.00000
     16       5.1264      2.00000
     17       6.4028      2.00000
     18       7.3328      2.00000
     19      14.5792      0.00000
     20      15.1663      0.00000
     21      16.0589      0.00000
     22      16.8330      0.00000
     23      17.7189      0.00000
     24      18.1674      0.00000
     25      21.1453      0.00000
     26      23.2585      0.00000
     27      24.5227      0.00000
     28      26.3580      0.00000
     29      28.4495      0.00000
     30      30.0412      0.00000
     31      31.2818      0.00000
     32      31.8491      0.00000

 k-point   382 :      -0.3750   -0.1250   -0.1667
  band No.  band energies     occupation 
      1      -7.8839      2.00000
      2      -7.5789      2.00000
      3      -5.8888      2.00000
      4      -5.7832      2.00000
      5      -5.7506      2.00000
      6      -5.7221      2.00000
      7      -5.6611      2.00000
      8      -5.5623      2.00000
      9      -5.4834      2.00000
     10      -5.4214      2.00000
     11      -5.1438      2.00000
     12      -4.0187      2.00000
     13       0.5842      2.00000
     14       1.7914      2.00000
     15       3.6459      2.00000
     16       5.6338      2.00000
     17       5.8579      2.00000
     18       7.1684      2.00000
     19      14.4717      0.00000
     20      16.0770      0.00000
     21      16.4256      0.00000
     22      16.9433      0.00000
     23      18.2742      0.00000
     24      19.2449      0.00000
     25      20.7386      0.00000
     26      23.1528      0.00000
     27      23.6040      0.00000
     28      27.6703      0.00000
     29      28.5002      0.00000
     30      29.8971      0.00000
     31      30.6945      0.00000
     32      31.7931      0.00000

 k-point   383 :      -0.2500   -0.1250   -0.1667
  band No.  band energies     occupation 
      1      -8.4992      2.00000
      2      -7.7437      2.00000
      3      -5.8770      2.00000
      4      -5.8150      2.00000
      5      -5.7666      2.00000
      6      -5.6705      2.00000
      7      -5.6545      2.00000
      8      -5.5871      2.00000
      9      -5.5609      2.00000
     10      -5.4847      2.00000
     11      -5.4270      2.00000
     12      -3.9504      2.00000
     13       1.1621      2.00000
     14       3.1306      2.00000
     15       3.4325      2.00000
     16       5.2845      2.00000
     17       6.8124      2.00000
     18       7.1403      2.00000
     19      14.1737      0.00000
     20      15.5356      0.00000
     21      17.0118      0.00000
     22      17.6373      0.00000
     23      18.3853      0.00000
     24      19.3223      0.00000
     25      21.8954      0.00000
     26      23.6372      0.00000
     27      23.9021      0.00000
     28      26.5842      0.00000
     29      27.7870      0.00000
     30      29.1187      0.00000
     31      31.2654      0.00000
     32      31.9788      0.00000

 k-point   384 :      -0.1250   -0.1250   -0.1667
  band No.  band energies     occupation 
      1      -9.1185      2.00000
      2      -8.0021      2.00000
      3      -5.9322      2.00000
      4      -5.8363      2.00000
      5      -5.8355      2.00000
      6      -5.6560      2.00000
      7      -5.6221      2.00000
      8      -5.5696      2.00000
      9      -5.5413      2.00000
     10      -5.4828      2.00000
     11      -5.4386      2.00000
     12      -4.0769      2.00000
     13       1.0855      2.00000
     14       3.8705      2.00000
     15       4.8870      2.00000
     16       5.7660      2.00000
     17       7.4560      2.00000
     18       7.4987      2.00000
     19      13.1909      0.00000
     20      13.9285      0.00000
     21      17.8310      0.00000
     22      18.1405      0.00000
     23      18.9427      0.00000
     24      18.9717      0.00000
     25      22.4769      0.00000
     26      23.5507      0.00000
     27      25.2866      0.00000
     28      25.3031      0.00000
     29      27.9543      0.00000
     30      28.0852      0.00000
     31      29.4069      0.00000
     32      31.7169      0.00000


--------------------------------------------------------------------------------------------------------


 soft charge-density along one line, spin component           1
         0         1         2         3         4         5         6         7         8         9
 total charge-density along one line
 
 pseudopotential strength for first ion, spin component:           1
 -9.256   0.000   0.000  -0.030   0.000  -0.856  -0.000  -0.000
  0.000  -9.327  -0.017  -0.000   0.030  -0.000  -0.814   0.010
  0.000  -0.017  -9.287   0.000  -0.055  -0.000   0.010  -0.838
 -0.030  -0.000   0.000  -9.234   0.000   0.017   0.000  -0.000
  0.000   0.030  -0.055   0.000  -9.244  -0.000  -0.018   0.032
 -0.856  -0.000  -0.000   0.017  -0.000   5.616   0.000   0.000
 -0.000  -0.814   0.010   0.000  -0.018   0.000   5.591  -0.006
 -0.000   0.010  -0.838  -0.000   0.032   0.000  -0.006   5.608
  0.017   0.000  -0.000  -0.869  -0.000  -0.009  -0.000   0.000
 -0.000  -0.018   0.032  -0.000  -0.863  -0.000   0.010  -0.020
  0.000   0.002   0.001  -0.000  -0.004   0.000   0.002   0.000
  0.000   0.006   0.002  -0.000  -0.004  -0.000  -0.002   0.001
 -0.000  -0.008   0.005   0.000   0.010   0.000   0.003  -0.002
  0.000  -0.008  -0.012  -0.000   0.001  -0.000   0.004   0.006
 -0.007   0.000   0.000  -0.007  -0.000   0.002  -0.000  -0.000
  0.000   0.012  -0.006  -0.000  -0.012  -0.000  -0.002   0.001
 -0.000   0.011   0.014   0.000  -0.001   0.000  -0.003  -0.001
  0.010  -0.000  -0.000   0.010   0.000  -0.001   0.000   0.000
 total augmentation occupancy for first ion, spin component:           1
  2.017  -0.000   0.000   0.001   0.000   0.037  -0.000   0.000   0.004  -0.000   0.000  -0.000   0.000   0.000  -0.012  -0.000
 -0.000   2.015  -0.001   0.000   0.002  -0.000   0.032  -0.002   0.000   0.009   0.001  -0.001  -0.005  -0.001   0.000  -0.000
  0.000  -0.001   2.024  -0.000  -0.004   0.000  -0.002   0.064  -0.000  -0.013   0.003  -0.001  -0.007   0.034   0.000  -0.001
  0.001   0.000  -0.000   2.019   0.000   0.004  -0.000  -0.000   0.041   0.000  -0.000  -0.000   0.000   0.000  -0.019  -0.000
  0.000   0.002  -0.004   0.000   2.024  -0.000   0.009  -0.013  -0.000   0.071   0.003   0.004  -0.023  -0.007   0.000  -0.003
  0.037  -0.000   0.000   0.004  -0.000   0.075  -0.000   0.000   0.010  -0.000  -0.000  -0.000   0.000   0.000  -0.088  -0.000
 -0.000   0.032  -0.002  -0.000   0.009  -0.000   0.064  -0.010  -0.000   0.036  -0.030  -0.001  -0.067  -0.010   0.000  -0.002
  0.000  -0.002   0.064  -0.000  -0.013   0.000  -0.010   0.171  -0.000  -0.038  -0.017  -0.001  -0.043   0.302  -0.000  -0.001
  0.004   0.000  -0.000   0.041  -0.000   0.010  -0.000  -0.000   0.087   0.000   0.000   0.000  -0.000   0.000  -0.143  -0.000
 -0.000   0.009  -0.013   0.000   0.071  -0.000   0.036  -0.038   0.000   0.216   0.099   0.003  -0.225  -0.076   0.000  -0.005
  0.000   0.001   0.003  -0.000   0.003  -0.000  -0.030  -0.017   0.000   0.099   1.330   0.046   0.056   0.076   0.000   0.003
 -0.000  -0.001  -0.001  -0.000   0.004  -0.000  -0.001  -0.001   0.000   0.003   0.046   0.003   0.003   0.003   0.000   0.000
  0.000  -0.005  -0.007   0.000  -0.023   0.000  -0.067  -0.043  -0.000  -0.225   0.056   0.003   0.985  -0.095  -0.000   0.023
  0.000  -0.001   0.034   0.000  -0.007   0.000  -0.010   0.302   0.000  -0.076   0.076   0.003  -0.095   1.151  -0.000  -0.002
 -0.012   0.000   0.000  -0.019   0.000  -0.088   0.000  -0.000  -0.143   0.000   0.000   0.000  -0.000  -0.000   1.333   0.000
 -0.000  -0.000  -0.001  -0.000  -0.003  -0.000  -0.002  -0.001  -0.000  -0.005   0.003   0.000   0.023  -0.002   0.000   0.001
  0.000   0.000   0.005   0.000  -0.001   0.000  -0.000   0.007   0.000  -0.001   0.003   0.000  -0.002   0.027  -0.000  -0.000
 -0.001   0.000   0.000  -0.002   0.000  -0.002   0.000  -0.000  -0.004   0.000   0.000   0.000  -0.000  -0.000   0.035   0.000


------------------------ aborting loop because EDIFF is reached ----------------------------------------


    CHARGE:  cpu time      0.1306: real time      0.1306
    FORLOC:  cpu time      0.0003: real time      0.0010
    FORNL :  cpu time      0.1470: real time      0.1519
    STRESS:  cpu time      3.7496: real time      3.7712
    FORCOR:  cpu time      0.0053: real time      0.0099
    FORHAR:  cpu time      0.0012: real time      0.0027
    MIXING:  cpu time      0.0003: real time      0.0003
    OFIELD:  cpu time      0.0001: real time      0.0009

  FORCE on cell =-STRESS in cart. coord.  units (eV):
  Direction    XX          YY          ZZ          XY          YZ          ZX
  --------------------------------------------------------------------------------------
  Alpha Z   245.95699   245.95699   245.95699
  Ewald   -1001.49541 -1243.81457 -1230.69577     0.00000     0.00883    -0.00000
  Hartree   400.31773   293.95055   288.91881     0.00000     0.00438    -0.00000
  E(xc)    -202.37865  -203.05488  -202.94580     0.00000     0.00003    -0.00000
  Local      -7.25362   334.55438   329.18492    -0.00000    -0.01314     0.00000
  n-local     3.46500    -7.80111    -3.63986     0.00000     0.00042    -0.00000
  augment   246.53436   247.75785   246.82756    -0.00000     0.00017     0.00000
  Kinetic   325.21604   342.75725   336.82768    -0.00000    -0.00070    -0.00000
  Fock        0.00000     0.00000     0.00000     0.00000     0.00000     0.00000
  -------------------------------------------------------------------------------------
  Total      10.36244    10.30646    10.43452     0.00000    -0.00002    -0.00000
  in kB     452.18686   449.74409   455.33224     0.00000    -0.00072    -0.00001
  external pressure =      452.42 kB  Pullay stress =        0.00 kB


 VOLUME and BASIS-vectors are now :
 -----------------------------------------------------------------------------
  energy-cutoff  :      600.00
  volume of cell :       36.72
      direct lattice vectors                 reciprocal lattice vectors
     1.797939366 -2.177668905 -0.000011675     0.278096141 -0.229603315  0.000001078
     1.797939367  2.177668906  0.000011686     0.278096141  0.229603315 -0.000001079
     0.000000012  0.000022020  4.688757833    -0.000000001 -0.000001144  0.213276103

  length of vectors
     2.823973765  2.823973766  4.688757833     0.360631593  0.360631593  0.213276103


 FORCES acting on ions
    electron-ion (+dipol)            ewald-force                    non-local-force                 convergence-correction
 -----------------------------------------------------------------------------------------------
   0.828E-06 0.577E+02 0.285E+02   -.676E-06 -.526E+02 -.230E+02   -.126E-06 -.507E+01 -.555E+01   -.269E-06 0.353E-03 0.116E-03
   0.633E-05 -.577E+02 0.285E+02   -.593E-05 0.526E+02 -.230E+02   -.722E-06 0.507E+01 -.555E+01   0.102E-06 -.352E-03 0.119E-03
   -.519E-05 0.481E+02 -.206E+02   0.561E-05 -.523E+02 0.230E+02   -.213E-06 0.416E+01 -.234E+01   -.528E-07 0.153E-03 -.512E-04
   -.833E-06 -.481E+02 -.206E+02   0.994E-06 0.523E+02 0.230E+02   -.611E-07 -.416E+01 -.234E+01   0.705E-07 -.152E-03 -.513E-04
 -----------------------------------------------------------------------------------------------
   0.114E-05 -.158E-03 0.158E+02   -.201E-13 0.711E-14 -.284E-13   -.112E-05 -.577E-03 -.158E+02   -.149E-06 0.650E-06 0.133E-03
 
 
 POSITION                                       TOTAL-FORCE (eV/Angst)
 -----------------------------------------------------------------------------------
      1.79794     -0.67294      2.44702        -0.000000      0.027694     -0.005797
      1.79794      1.07370      0.10266        -0.000000     -0.027726     -0.005880
      1.79794     -0.81117      4.32024         0.000000      0.027051      0.005853
      1.79794      1.21199      1.97587         0.000000     -0.027020      0.005824
 -----------------------------------------------------------------------------------
    total drift:                               -0.000000     -0.000734     -0.000600


--------------------------------------------------------------------------------------------------------



  FREE ENERGIE OF THE ION-ELECTRON SYSTEM (eV)
  ---------------------------------------------------
  free  energy   TOTEN  =       -21.96893367 eV

  energy  without entropy=      -21.96893367  energy(sigma->0) =      -21.96893367
 


--------------------------------------------------------------------------------------------------------


    POTLOK:  cpu time      0.0080: real time      0.0095


--------------------------------------------------------------------------------------------------------


     LOOP+:  cpu time    103.8857: real time    104.5094
    4ORBIT:  cpu time      0.0000: real time      0.0000

 total amount of memory used by VASP MPI-rank0   177935. kBytes
=======================================================================

   base      :      30000. kBytes
   nonl-proj :     138098. kBytes
   fftplans  :        347. kBytes
   grid      :       1368. kBytes
   one-center:         62. kBytes
   wavefun   :       8060. kBytes
 
  
  
 General timing and accounting informations for this job:
 ========================================================
  
                  Total CPU time used (sec):      106.475
                            User time (sec):      104.916
                          System time (sec):        1.559
                         Elapsed time (sec):      109.083
  
                   Maximum memory used (kb):      272948.
                   Average memory used (kb):          N/A
  
                          Minor page faults:        35081
                          Major page faults:            0
                 Voluntary context switches:         3380
