Hf O 
 1.0000000000000000
     5.2803649849942245    0.0000043839155854    0.0000058722532785
     0.0000041611951204    5.0531173739394806   -0.0000064834964723
     0.0000064193413261   -0.0000065149127598    5.0853361145533231
 Hf  O  
   4   8
Direct
  0.0485645925863020 -0.0066312731986140  0.0145686415225008
 -0.0153504494536331  0.5228719918022027  0.5145643170718114
  0.4846496076782736 -0.0066270460818154  0.5145656245100541
  0.5485644203571628  0.5228756656764715  0.0145683061039132
  0.3778874769618509  0.1949210666020734  0.1649433112385292
  0.1553473912917024  0.1949246447689992  0.6649440722641899
  0.2405855164195976  0.7251125425935705  0.2667482225052449
  0.2926651803104016  0.7251183357449381  0.7667486874590567
  0.8778882990391771  0.3213279891564993  0.1649417502652598
  0.6553464040860714  0.3213247913635157  0.6649418384263509
  0.7405852189681887  0.7911372355421005  0.2667435819426232
  0.7926652015415909  0.7911315307773857  0.7667441806711099
