Hf O 
 1.0000000000000000
     5.2803649824837819    0.0000043838337038    0.0000058723189877
     0.0000041611132716    5.0531173740425537   -0.0000064837639407
     0.0000064194065401   -0.0000065151820319    5.0853361140860889
 Hf  O  
   4   8
Direct
  0.0153503919629167  0.0066270485204163 -0.0145656246488195
 -0.0485644206119381  0.4771243365433619  0.4854316941377230
  0.4514354072991230  0.0066312756190103  0.4854313583004047
  0.5153504490552974  0.4771280104580751 -0.0145643168501594
  0.2594144827383846  0.2748874594057552  0.2332517770473326
  0.2073348199701432  0.2748816663890664  0.7332513121317311
  0.1221125227872058  0.8050789353435068  0.3350566885202494
  0.3446526084723935  0.8050753573092903  0.8350559275543052
  0.7594147801565728  0.2088627655439381  0.2332564193531889
  0.7073347987098246  0.2088684705695281  0.7332558205634355
  0.6221117002471355  0.6786720119829455  0.3350582508668181
  0.8446535959854533  0.6786752099972642  0.8350581626030461
