Hf O 
 1.0000000000000000
     5.3817257841815076    0.0000031161628706    0.0000467471655857
     0.0000030762748407    5.0448426102352526   -0.0000479446578538
     0.0000467987569519   -0.0000478688273094    5.1036365976569966
 Hf  O  
   4   8
Direct
  0.0446887210042579 -0.0071621778396096  0.0148819477151118
 -0.0285107805633594  0.5150591599061636  0.5148770203576820
  0.4714873539348177 -0.0071538584523457  0.5148780349825569
  0.5446861590857591  0.5150669749387727  0.0148820306309206
  0.3643550138092239  0.2024616375063745  0.1775970213464829
  0.1518179131258087  0.2024607680878382  0.6775977336262509
  0.2121168145176300  0.7348642967321831  0.2813633516704729
  0.3040710330739768  0.7348706804717620  0.7813650126709853
  0.8643547628462860  0.3054502680367849  0.1775911724458976
  0.6518179598790259  0.3054513341923581  0.6775916232789873
  0.7121185249133087  0.7730484708150250  0.2813585648716519
  0.8040688435457873  0.7730423201571885  0.7813600895604951
