Hf O 
 1.0000000000000000
     5.3817257503925475    0.0000031118444958    0.0000467492731321
     0.0000030719780480    5.0448426075738304   -0.0000479411640826
     0.0000468008432805   -0.0000478654018238    5.1036365870617288
 Hf  O  
   4   8
Direct
  0.0285126368489954  0.0071539722400744 -0.0148780463604461
 -0.0446861672157143  0.4849331336105874  0.4851179759449754
  0.4553112793444100  0.0071622913180952  0.4851180395251330
  0.5285107750716171  0.4849409498141793 -0.0148770145421916
  0.2878831726301331  0.2651357868909036  0.2186366164645875
  0.1959289689322308  0.2651294080426871  0.7186349577898863
  0.1356449825426407  0.7975384472030058  0.3224029554694315
  0.3481820814568941  0.7975393216825803  0.8224022466122485
  0.7878814577162531  0.2269515955100568  0.2186414769668641
  0.6959311598114943  0.2269577533194161  0.7186399495115190
  0.6356452191583971  0.6945498013975581  0.3224088598120574
  0.8481820443671944  0.6945487412353537  0.8224084050289737
