Hf O 
 1.0000000000000000
     5.5360741335897998    0.0000009864402196    0.0000423480284556
     0.0000009819365224    5.0201040678585676   -0.0000824374366182
     0.0000427671700714   -0.0000827842111902    5.1462351394282511
 Hf  O  
   4   8
Direct
  0.0562123012146508 -0.0029081522405190  0.0052240526696107
 -0.0426107759247641  0.5095659233725044  0.5052199477206094
  0.4573821323611155 -0.0029002982585593  0.5052184014169124
  0.5562047867588950  0.5095741394600097  0.0052254919017618
  0.3623321085734570  0.2125694679830237  0.1746010105404681
  0.1512630134562229  0.2125672802915557  0.6746022477211849
  0.1857147890827939  0.7524467514964447  0.2981673402023669
  0.3279006066937317  0.7524562574085568  0.7981697721545573
  0.8623265375444660  0.2940764011037480  0.1746028184121560
  0.6512683325646468  0.2940785420599893  0.6746040853537935
  0.6857136599363267  0.7541939578049937  0.2981884465973616
  0.8279016589550681  0.7541850218253774  0.7981909741482508
