Hf O 
 1.0000000000000000
     5.6952156114869403    0.0000051585764942    0.0000263400530181
     0.0000058901015565    4.9639766602597719    0.0000001474991503
     0.0000265937418548    0.0000001398174051    5.2068580511531870
 Hf  O  
   4   8
Direct
  0.0651410701353490 -0.0000066876988467  0.0000011819909446
 -0.0651404837963486  0.4999942018352579  0.4999988558126442
  0.4348596066461100 -0.0000010018320384  0.4999984291958481
  0.5651411767575132  0.4999985875297843  0.0000017886007724
  0.3519087000796357  0.2258670811370636  0.1763074272946434
  0.1480863780320596  0.2258615327844733  0.6763068819786066
  0.1480919366102959  0.7741245022053330  0.3236920070638443
  0.3519144247298305  0.7741301667552984  0.8236930498309917
  0.8519088896476054  0.2741255009563138  0.1763074301388270
  0.6480850640765551  0.2741305935077480  0.6763067029938060
  0.6480928479671171  0.7258674812275564  0.3236921380692400
  0.8519143044300673  0.7258627314220101  0.8236922917095258
