Hf O 
 1.0000000000000000
     5.5360740070054693    0.0000009616920135    0.0000423575403927
     0.0000009571377033    5.0201040452440191   -0.0000822959917858
     0.0000427766253171   -0.0000826440773322    5.1462350654670992
 Hf  O  
   4   8
Direct
  0.0426177679408877  0.0029014726311404 -0.0052184679147268
 -0.0562048773310679  0.4904269850519217  0.4947745347536404
  0.4437876648798879  0.0029093263509206  0.4947758768468539
  0.5426107332856555  0.4904352060629014 -0.0052199230548900
  0.3142851065533707  0.2475541792760895  0.2018324271802624
  0.1720993641055192  0.2475446985204274  0.7018300028822487
  0.1376678118622843  0.7874314843731642  0.3253988355117077
  0.3487369379947706  0.7874337010392939  0.8253976154465699
  0.8142861669361654  0.2458068332343661  0.2018118587517958
  0.6720983611257367  0.2458157776379910  0.7018093335487723
  0.6376732812799792  0.7059244068911937  0.3253974305686533
  0.8487316999040894  0.7059222739181468  0.8253961585115194
