Hf O 
 1.0000000000000000
     5.2390601337432896   -0.0000000000000000   -0.0000000000000050
     0.0000000000000000    5.0758502946391850    0.0000000000000000
    -0.0000025044714985    0.0000009316241557    5.0656582329549833
 Hf  O  
   4   8
Direct
 -0.0000202243020789  0.0637228807264074 -0.0000413822895553
  0.4999796708418491  1.0012867153426128  0.5318253317413303
  0.4999791155459511  0.5012870971813158  0.9999591284579078
  0.9999802503338265  0.5637229638710448  0.5318262107332232
  0.1456969595770564  0.3974387566642860  0.1966308183188147
  0.6456978704161556  0.1675767729983366  0.1966339200143985
  0.2491838316587956  0.2686079144998197  0.7270713612108701
  0.7491836108979684  0.2964075681753549  0.7270712846207957
  0.1456965644115212  0.8974383459482206  0.3351550086239479
  0.6456974156266481  0.6675772605236789  0.3351521621406874
  0.2491838409937372  0.7686075816198948  0.8047144799547610
  0.7491836054083758  0.7964074160076502  0.8047150719334174
