Hf O
 1.0000000000000000
     5.2390601337432896    0.0000000000000000   -0.0000000000000050
     0.0000000000000000    5.0758502946391850    0.0000000000000000
    -0.0000004799226094    0.0000003543564038    5.0502039247530739
 Hf  O
   4   8
Direct
  0.0000000436235966  0.0650192587985388  0.0000000555351009
  0.4999991348600222  0.9999998289971287  0.5317830625443229
  0.5000000000000001  0.5000000000000000  0.9999999999999997
  0.9999995860981988  0.5650192911975134  0.5317835208691937
  0.1432097471197264  0.3976122460619846  0.1977096809647398
  0.6432087338261678  0.1673956094907249  0.1977075310769746
  0.2516539724768145  0.2621570574470838  0.7293234910863352
  0.7516541514657327  0.3028568703314790  0.7293244795818038
  0.1432074917005871  0.8976123392171476  0.3340768417607105
  0.6432064123019559  0.6673951564620830  0.3340793158779305
  0.2516514181233900  0.7621562010534134  0.8024632069960995
  0.7516518198125900  0.8028574144965905  0.8024622091643713
